*HEADING
 Axisymmetric implant-screw biofilm, cond=DH, R0=4.000 (hoop confinement)
*NODE
 1, 4.000000, 0.000000
 2, 4.062500, 0.000000
 3, 4.125000, 0.000000
 4, 4.187500, 0.000000
 5, 4.250000, 0.000000
 6, 4.312500, 0.000000
 7, 4.375000, 0.000000
 8, 4.437500, 0.000000
 9, 4.500000, 0.000000
 10, 4.562500, 0.000000
 11, 4.625000, 0.000000
 12, 4.687500, 0.000000
 13, 4.750000, 0.000000
 14, 4.812500, 0.000000
 15, 4.875000, 0.000000
 16, 4.937500, 0.000000
 17, 5.000000, 0.000000
 18, 4.000000, 0.062500
 19, 4.062500, 0.062500
 20, 4.125000, 0.062500
 21, 4.187500, 0.062500
 22, 4.250000, 0.062500
 23, 4.312500, 0.062500
 24, 4.375000, 0.062500
 25, 4.437500, 0.062500
 26, 4.500000, 0.062500
 27, 4.562500, 0.062500
 28, 4.625000, 0.062500
 29, 4.687500, 0.062500
 30, 4.750000, 0.062500
 31, 4.812500, 0.062500
 32, 4.875000, 0.062500
 33, 4.937500, 0.062500
 34, 5.000000, 0.062500
 35, 4.000000, 0.125000
 36, 4.062500, 0.125000
 37, 4.125000, 0.125000
 38, 4.187500, 0.125000
 39, 4.250000, 0.125000
 40, 4.312500, 0.125000
 41, 4.375000, 0.125000
 42, 4.437500, 0.125000
 43, 4.500000, 0.125000
 44, 4.562500, 0.125000
 45, 4.625000, 0.125000
 46, 4.687500, 0.125000
 47, 4.750000, 0.125000
 48, 4.812500, 0.125000
 49, 4.875000, 0.125000
 50, 4.937500, 0.125000
 51, 5.000000, 0.125000
 52, 4.000000, 0.187500
 53, 4.062500, 0.187500
 54, 4.125000, 0.187500
 55, 4.187500, 0.187500
 56, 4.250000, 0.187500
 57, 4.312500, 0.187500
 58, 4.375000, 0.187500
 59, 4.437500, 0.187500
 60, 4.500000, 0.187500
 61, 4.562500, 0.187500
 62, 4.625000, 0.187500
 63, 4.687500, 0.187500
 64, 4.750000, 0.187500
 65, 4.812500, 0.187500
 66, 4.875000, 0.187500
 67, 4.937500, 0.187500
 68, 5.000000, 0.187500
 69, 4.000000, 0.250000
 70, 4.062500, 0.250000
 71, 4.125000, 0.250000
 72, 4.187500, 0.250000
 73, 4.250000, 0.250000
 74, 4.312500, 0.250000
 75, 4.375000, 0.250000
 76, 4.437500, 0.250000
 77, 4.500000, 0.250000
 78, 4.562500, 0.250000
 79, 4.625000, 0.250000
 80, 4.687500, 0.250000
 81, 4.750000, 0.250000
 82, 4.812500, 0.250000
 83, 4.875000, 0.250000
 84, 4.937500, 0.250000
 85, 5.000000, 0.250000
 86, 4.000000, 0.312500
 87, 4.062500, 0.312500
 88, 4.125000, 0.312500
 89, 4.187500, 0.312500
 90, 4.250000, 0.312500
 91, 4.312500, 0.312500
 92, 4.375000, 0.312500
 93, 4.437500, 0.312500
 94, 4.500000, 0.312500
 95, 4.562500, 0.312500
 96, 4.625000, 0.312500
 97, 4.687500, 0.312500
 98, 4.750000, 0.312500
 99, 4.812500, 0.312500
 100, 4.875000, 0.312500
 101, 4.937500, 0.312500
 102, 5.000000, 0.312500
 103, 4.000000, 0.375000
 104, 4.062500, 0.375000
 105, 4.125000, 0.375000
 106, 4.187500, 0.375000
 107, 4.250000, 0.375000
 108, 4.312500, 0.375000
 109, 4.375000, 0.375000
 110, 4.437500, 0.375000
 111, 4.500000, 0.375000
 112, 4.562500, 0.375000
 113, 4.625000, 0.375000
 114, 4.687500, 0.375000
 115, 4.750000, 0.375000
 116, 4.812500, 0.375000
 117, 4.875000, 0.375000
 118, 4.937500, 0.375000
 119, 5.000000, 0.375000
 120, 4.000000, 0.437500
 121, 4.062500, 0.437500
 122, 4.125000, 0.437500
 123, 4.187500, 0.437500
 124, 4.250000, 0.437500
 125, 4.312500, 0.437500
 126, 4.375000, 0.437500
 127, 4.437500, 0.437500
 128, 4.500000, 0.437500
 129, 4.562500, 0.437500
 130, 4.625000, 0.437500
 131, 4.687500, 0.437500
 132, 4.750000, 0.437500
 133, 4.812500, 0.437500
 134, 4.875000, 0.437500
 135, 4.937500, 0.437500
 136, 5.000000, 0.437500
 137, 4.000000, 0.500000
 138, 4.062500, 0.500000
 139, 4.125000, 0.500000
 140, 4.187500, 0.500000
 141, 4.250000, 0.500000
 142, 4.312500, 0.500000
 143, 4.375000, 0.500000
 144, 4.437500, 0.500000
 145, 4.500000, 0.500000
 146, 4.562500, 0.500000
 147, 4.625000, 0.500000
 148, 4.687500, 0.500000
 149, 4.750000, 0.500000
 150, 4.812500, 0.500000
 151, 4.875000, 0.500000
 152, 4.937500, 0.500000
 153, 5.000000, 0.500000
*ELEMENT, TYPE=CAX4
 1, 1, 2, 19, 18
 2, 2, 3, 20, 19
 3, 3, 4, 21, 20
 4, 4, 5, 22, 21
 5, 5, 6, 23, 22
 6, 6, 7, 24, 23
 7, 7, 8, 25, 24
 8, 8, 9, 26, 25
 9, 9, 10, 27, 26
 10, 10, 11, 28, 27
 11, 11, 12, 29, 28
 12, 12, 13, 30, 29
 13, 13, 14, 31, 30
 14, 14, 15, 32, 31
 15, 15, 16, 33, 32
 16, 16, 17, 34, 33
 17, 18, 19, 36, 35
 18, 19, 20, 37, 36
 19, 20, 21, 38, 37
 20, 21, 22, 39, 38
 21, 22, 23, 40, 39
 22, 23, 24, 41, 40
 23, 24, 25, 42, 41
 24, 25, 26, 43, 42
 25, 26, 27, 44, 43
 26, 27, 28, 45, 44
 27, 28, 29, 46, 45
 28, 29, 30, 47, 46
 29, 30, 31, 48, 47
 30, 31, 32, 49, 48
 31, 32, 33, 50, 49
 32, 33, 34, 51, 50
 33, 35, 36, 53, 52
 34, 36, 37, 54, 53
 35, 37, 38, 55, 54
 36, 38, 39, 56, 55
 37, 39, 40, 57, 56
 38, 40, 41, 58, 57
 39, 41, 42, 59, 58
 40, 42, 43, 60, 59
 41, 43, 44, 61, 60
 42, 44, 45, 62, 61
 43, 45, 46, 63, 62
 44, 46, 47, 64, 63
 45, 47, 48, 65, 64
 46, 48, 49, 66, 65
 47, 49, 50, 67, 66
 48, 50, 51, 68, 67
 49, 52, 53, 70, 69
 50, 53, 54, 71, 70
 51, 54, 55, 72, 71
 52, 55, 56, 73, 72
 53, 56, 57, 74, 73
 54, 57, 58, 75, 74
 55, 58, 59, 76, 75
 56, 59, 60, 77, 76
 57, 60, 61, 78, 77
 58, 61, 62, 79, 78
 59, 62, 63, 80, 79
 60, 63, 64, 81, 80
 61, 64, 65, 82, 81
 62, 65, 66, 83, 82
 63, 66, 67, 84, 83
 64, 67, 68, 85, 84
 65, 69, 70, 87, 86
 66, 70, 71, 88, 87
 67, 71, 72, 89, 88
 68, 72, 73, 90, 89
 69, 73, 74, 91, 90
 70, 74, 75, 92, 91
 71, 75, 76, 93, 92
 72, 76, 77, 94, 93
 73, 77, 78, 95, 94
 74, 78, 79, 96, 95
 75, 79, 80, 97, 96
 76, 80, 81, 98, 97
 77, 81, 82, 99, 98
 78, 82, 83, 100, 99
 79, 83, 84, 101, 100
 80, 84, 85, 102, 101
 81, 86, 87, 104, 103
 82, 87, 88, 105, 104
 83, 88, 89, 106, 105
 84, 89, 90, 107, 106
 85, 90, 91, 108, 107
 86, 91, 92, 109, 108
 87, 92, 93, 110, 109
 88, 93, 94, 111, 110
 89, 94, 95, 112, 111
 90, 95, 96, 113, 112
 91, 96, 97, 114, 113
 92, 97, 98, 115, 114
 93, 98, 99, 116, 115
 94, 99, 100, 117, 116
 95, 100, 101, 118, 117
 96, 101, 102, 119, 118
 97, 103, 104, 121, 120
 98, 104, 105, 122, 121
 99, 105, 106, 123, 122
 100, 106, 107, 124, 123
 101, 107, 108, 125, 124
 102, 108, 109, 126, 125
 103, 109, 110, 127, 126
 104, 110, 111, 128, 127
 105, 111, 112, 129, 128
 106, 112, 113, 130, 129
 107, 113, 114, 131, 130
 108, 114, 115, 132, 131
 109, 115, 116, 133, 132
 110, 116, 117, 134, 133
 111, 117, 118, 135, 134
 112, 118, 119, 136, 135
 113, 120, 121, 138, 137
 114, 121, 122, 139, 138
 115, 122, 123, 140, 139
 116, 123, 124, 141, 140
 117, 124, 125, 142, 141
 118, 125, 126, 143, 142
 119, 126, 127, 144, 143
 120, 127, 128, 145, 144
 121, 128, 129, 146, 145
 122, 129, 130, 147, 146
 123, 130, 131, 148, 147
 124, 131, 132, 149, 148
 125, 132, 133, 150, 149
 126, 133, 134, 151, 150
 127, 134, 135, 152, 151
 128, 135, 136, 153, 152
*ELSET, ELSET=COL0
 1,17,33,49,65,81,97,113
*ELSET, ELSET=COL1
 2,18,34,50,66,82,98,114
*ELSET, ELSET=COL2
 3,19,35,51,67,83,99,115
*ELSET, ELSET=COL3
 4,20,36,52,68,84,100,116
*ELSET, ELSET=COL4
 5,21,37,53,69,85,101,117
*ELSET, ELSET=COL5
 6,22,38,54,70,86,102,118
*ELSET, ELSET=COL6
 7,23,39,55,71,87,103,119
*ELSET, ELSET=COL7
 8,24,40,56,72,88,104,120
*ELSET, ELSET=COL8
 9,25,41,57,73,89,105,121
*ELSET, ELSET=COL9
 10,26,42,58,74,90,106,122
*ELSET, ELSET=COL10
 11,27,43,59,75,91,107,123
*ELSET, ELSET=COL11
 12,28,44,60,76,92,108,124
*ELSET, ELSET=COL12
 13,29,45,61,77,93,109,125
*ELSET, ELSET=COL13
 14,30,46,62,78,94,110,126
*ELSET, ELSET=COL14
 15,31,47,63,79,95,111,127
*ELSET, ELSET=COL15
 16,32,48,64,80,96,112,128
*SOLID SECTION, ELSET=COL0, MATERIAL=MAT0
*SOLID SECTION, ELSET=COL1, MATERIAL=MAT1
*SOLID SECTION, ELSET=COL2, MATERIAL=MAT2
*SOLID SECTION, ELSET=COL3, MATERIAL=MAT3
*SOLID SECTION, ELSET=COL4, MATERIAL=MAT4
*SOLID SECTION, ELSET=COL5, MATERIAL=MAT5
*SOLID SECTION, ELSET=COL6, MATERIAL=MAT6
*SOLID SECTION, ELSET=COL7, MATERIAL=MAT7
*SOLID SECTION, ELSET=COL8, MATERIAL=MAT8
*SOLID SECTION, ELSET=COL9, MATERIAL=MAT9
*SOLID SECTION, ELSET=COL10, MATERIAL=MAT10
*SOLID SECTION, ELSET=COL11, MATERIAL=MAT11
*SOLID SECTION, ELSET=COL12, MATERIAL=MAT12
*SOLID SECTION, ELSET=COL13, MATERIAL=MAT13
*SOLID SECTION, ELSET=COL14, MATERIAL=MAT14
*SOLID SECTION, ELSET=COL15, MATERIAL=MAT15
*MATERIAL, NAME=MAT0
*ELASTIC
 5000.0, 0.450
*EXPANSION
 0.000000
*MATERIAL, NAME=MAT1
*ELASTIC
 5000.0, 0.450
*EXPANSION
 0.183380
*MATERIAL, NAME=MAT2
*ELASTIC
 5000.0, 0.450
*EXPANSION
 0.334136
*MATERIAL, NAME=MAT3
*ELASTIC
 5000.0, 0.450
*EXPANSION
 0.105326
*MATERIAL, NAME=MAT4
*ELASTIC
 5000.0, 0.450
*EXPANSION
 0.000000
*MATERIAL, NAME=MAT5
*ELASTIC
 5000.0, 0.450
*EXPANSION
 0.000000
*MATERIAL, NAME=MAT6
*ELASTIC
 5000.0, 0.450
*EXPANSION
 0.000000
*MATERIAL, NAME=MAT7
*ELASTIC
 5000.0, 0.450
*EXPANSION
 0.000000
*MATERIAL, NAME=MAT8
*ELASTIC
 5000.0, 0.450
*EXPANSION
 0.005008
*MATERIAL, NAME=MAT9
*ELASTIC
 5000.0, 0.450
*EXPANSION
 0.048387
*MATERIAL, NAME=MAT10
*ELASTIC
 5000.0, 0.450
*EXPANSION
 0.079940
*MATERIAL, NAME=MAT11
*ELASTIC
 5000.0, 0.450
*EXPANSION
 0.100756
*MATERIAL, NAME=MAT12
*ELASTIC
 5000.0, 0.450
*EXPANSION
 0.110607
*MATERIAL, NAME=MAT13
*ELASTIC
 5000.0, 0.450
*EXPANSION
 0.118148
*MATERIAL, NAME=MAT14
*ELASTIC
 5000.0, 0.450
*EXPANSION
 0.127163
*MATERIAL, NAME=MAT15
*ELASTIC
 5000.0, 0.450
*EXPANSION
 0.132706
*NSET, NSET=INNER
 1,18,35,52,69,86,103,120,137
*NSET, NSET=ZBOT
 1,2,3,4,5,6,7,8,9,10,11,12,13,14,15,16
 17
*NSET, NSET=ZTOP
 137,138,139,140,141,142,143,144,145,146,147,148,149,150,151,152
 153
*NSET, NSET=ALLN
 1,2,3,4,5,6,7,8,9,10,11,12,13,14,15,16
 17,18,19,20,21,22,23,24,25,26,27,28,29,30,31,32
 33,34,35,36,37,38,39,40,41,42,43,44,45,46,47,48
 49,50,51,52,53,54,55,56,57,58,59,60,61,62,63,64
 65,66,67,68,69,70,71,72,73,74,75,76,77,78,79,80
 81,82,83,84,85,86,87,88,89,90,91,92,93,94,95,96
 97,98,99,100,101,102,103,104,105,106,107,108,109,110,111,112
 113,114,115,116,117,118,119,120,121,122,123,124,125,126,127,128
 129,130,131,132,133,134,135,136,137,138,139,140,141,142,143,144
 145,146,147,148,149,150,151,152,153
*INITIAL CONDITIONS, TYPE=TEMPERATURE
 ALLN, 0.0
*BOUNDARY
 INNER, 1, 2
 ZBOT, 2, 2
 ZTOP, 2, 2
*STEP
 Axisymmetric confined growth -> hoop + radial interface stress
*STATIC
*TEMPERATURE
 ALLN, 1.0
*OUTPUT, FIELD
*NODE OUTPUT
 U
*ELEMENT OUTPUT, POSITION=CENTROID
 S, COORD
*END STEP
