** =====================================================================
**  biofilm_viscoelastic.inp  --  B3 viscoelastic relaxation test (one C3D8)
**  Prony series from Burgers biofilm rheology (Stoodley/Shaw creep fit),
**  generated by prony_from_burger.py:
**     GM=5 etaM=3000 GK=10 etaK=100  ->  g1=0.321384@6.642s  g2=0.628616@903.36s
**     (deviatoric only; rescaled to a long-term elastic floor g_inf=0.05 that Abaqus requires)
**  Simple-shear a unit element, hold the shear, watch S13 relax over ~tau_M.
**  Run:  abaqus job=biofilm_viscoelastic interactive
**  Expect: S13 jumps to the instantaneous (glassy) value, then decays toward
**  ~0 (g_inf=0 -> fluid-like). Reported normalized: S13(t)/S13(0+) ~ g(t).
** =====================================================================
*HEADING
Biofilm B3 viscoelastic relaxation -- Burgers->Prony, simple shear
**
*NODE
1,  0.0, 0.0, 0.0
2,  1.0, 0.0, 0.0
3,  1.0, 1.0, 0.0
4,  0.0, 1.0, 0.0
5,  0.0, 0.0, 1.0
6,  1.0, 0.0, 1.0
7,  1.0, 1.0, 1.0
8,  0.0, 1.0, 1.0
*ELEMENT, TYPE=C3D8, ELSET=BIOFILM
1, 1, 2, 3, 4, 5, 6, 7, 8
*NSET, NSET=BOT
1, 2, 3, 4
*NSET, NSET=TOP
5, 6, 7, 8
*SOLID SECTION, ELSET=BIOFILM, MATERIAL=BIOFILM_VE
**
** ---- Material: instantaneous (glassy) hyperelastic-ish elastic + Prony relaxation ----
**  *ELASTIC sets the INSTANTANEOUS modulus (scale). Prony g_i are dimensionless.
**  E chosen so instantaneous shear G0 ~ 5 Pa at nu=0.45 (G=E/2(1+nu)); change E to
**  rescale (AFM short-time E~1.4-2.8 MPa if you model the fast-elastic limit).
*MATERIAL, NAME=BIOFILM_VE
*ELASTIC
14.5, 0.45
*VISCOELASTIC, TIME=PRONY
0.321384, 0.0, 6.64188
0.628616, 0.0, 903.358
**
** ---- Step 1: apply the shear fast (instantaneous response) ----
*STEP, NLGEOM=YES, INC=100
*VISCO, CETOL=1e-4
0.01, 0.1, 1e-6, 0.05
*BOUNDARY
BOT, 1, 3, 0.0
TOP, 2, 3, 0.0
*BOUNDARY
TOP, 1, 1, 0.1
*OUTPUT, FIELD
*ELEMENT OUTPUT
S, E
*OUTPUT, HISTORY
*ELEMENT OUTPUT, ELSET=BIOFILM
S13, S33
*END STEP
**
** ---- Step 2: hold the shear, let stress relax over ~5 x tau_M ----
*STEP, NLGEOM=YES, INC=1000
*VISCO, CETOL=1e-4
10.0, 4500.0, 1e-4, 200.0
*OUTPUT, FIELD, NUMBER INTERVAL=20
*ELEMENT OUTPUT
S, E
*OUTPUT, HISTORY, FREQUENCY=1
*ELEMENT OUTPUT, ELSET=BIOFILM
S13, S33
*END STEP
