*HEADING
 Socket-free depth-graded growth column (4 C3D8), cond=DH, CLSM beta=4.295 ic=-0.3343
** Laterally confined; phi_Pg(z) as FIELD var 1; iso volume-matched growth -> sigma_xx(z).
*NODE
 1, 0.0, 0.0, 0.000000
 2, 1.0, 0.0, 0.000000
 3, 1.0, 1.0, 0.000000
 4, 0.0, 1.0, 0.000000
 101, 0.0, 0.0, 0.250000
 102, 1.0, 0.0, 0.250000
 103, 1.0, 1.0, 0.250000
 104, 0.0, 1.0, 0.250000
 201, 0.0, 0.0, 0.500000
 202, 1.0, 0.0, 0.500000
 203, 1.0, 1.0, 0.500000
 204, 0.0, 1.0, 0.500000
 301, 0.0, 0.0, 0.750000
 302, 1.0, 0.0, 0.750000
 303, 1.0, 1.0, 0.750000
 304, 0.0, 1.0, 0.750000
 401, 0.0, 0.0, 1.000000
 402, 1.0, 0.0, 1.000000
 403, 1.0, 1.0, 1.000000
 404, 0.0, 1.0, 1.000000
*ELEMENT, TYPE=C3D8, ELSET=COL
 1, 1,2,3,4,101,102,103,104
 2, 101,102,103,104,201,202,203,204
 3, 201,202,203,204,301,302,303,304
 4, 301,302,303,304,401,402,403,404
*SOLID SECTION, ELSET=COL, MATERIAL=BIOFILM
*MATERIAL, NAME=BIOFILM
*USER MATERIAL, CONSTANTS=5
** E, nu, beta_depth(CLSM), intercept(CLSM), mode(1=iso volume-matched)
 5000.0, 0.450, 4.295160, -0.334306, 1.0
*DEPVAR
 3
*NSET, NSET=ALLN
 1,2,3,4,101,102,103,104,201,202,203,204,301,302,303,304
 401,402,403,404
*NSET, NSET=XF
 1,4,101,104,201,204,301,304,401,404
*NSET, NSET=XR
 2,3,102,103,202,203,302,303,402,403
*NSET, NSET=YF
 1,2,101,102,201,202,301,302,401,402
*NSET, NSET=YR
 3,4,103,104,203,204,303,304,403,404
*NSET, NSET=ZB
 1,2,3,4
*INITIAL CONDITIONS, TYPE=FIELD, VARIABLE=1
 ALLN, 0.0
*BOUNDARY
 XF, 1, 1
 XR, 1, 1
 YF, 2, 2
 YR, 2, 2
 ZB, 3, 3
*STEP, NLGEOM=YES, INC=200
 Ramp phi_Pg(z) 0 -> profile; isotropic confined growth -> residual sigma_xx(z)
*STATIC
 0.02, 1.0, 1.0E-5, 0.05
*FIELD, VARIABLE=1
 1, 0.200000
 2, 0.200000
 3, 0.200000
 4, 0.200000
 101, 0.200000
 102, 0.200000
 103, 0.200000
 104, 0.200000
 201, 0.200000
 202, 0.200000
 203, 0.200000
 204, 0.200000
 301, 0.200000
 302, 0.200000
 303, 0.200000
 304, 0.200000
 401, 0.200000
 402, 0.200000
 403, 0.200000
 404, 0.200000
*OUTPUT, FIELD
*NODE OUTPUT
 U
*ELEMENT OUTPUT, POSITION=CENTROID
 S, E, SDV, COORD
*END STEP
