*HEADING
 Socket-free depth-graded growth column (32 C3D8), cond=CH, CLSM beta=-10.41 ic=2.166
** Laterally confined; phi_Pg(z) as FIELD var 1; iso volume-matched growth -> sigma_xx(z).
*NODE
 1, 0.0, 0.0, 0.000000
 2, 1.0, 0.0, 0.000000
 3, 1.0, 1.0, 0.000000
 4, 0.0, 1.0, 0.000000
 1001, 0.0, 0.0, 0.125000
 1002, 1.0, 0.0, 0.125000
 1003, 1.0, 1.0, 0.125000
 1004, 0.0, 1.0, 0.125000
 2001, 0.0, 0.0, 0.250000
 2002, 1.0, 0.0, 0.250000
 2003, 1.0, 1.0, 0.250000
 2004, 0.0, 1.0, 0.250000
 3001, 0.0, 0.0, 0.375000
 3002, 1.0, 0.0, 0.375000
 3003, 1.0, 1.0, 0.375000
 3004, 0.0, 1.0, 0.375000
 4001, 0.0, 0.0, 0.500000
 4002, 1.0, 0.0, 0.500000
 4003, 1.0, 1.0, 0.500000
 4004, 0.0, 1.0, 0.500000
 5001, 0.0, 0.0, 0.625000
 5002, 1.0, 0.0, 0.625000
 5003, 1.0, 1.0, 0.625000
 5004, 0.0, 1.0, 0.625000
 6001, 0.0, 0.0, 0.750000
 6002, 1.0, 0.0, 0.750000
 6003, 1.0, 1.0, 0.750000
 6004, 0.0, 1.0, 0.750000
 7001, 0.0, 0.0, 0.875000
 7002, 1.0, 0.0, 0.875000
 7003, 1.0, 1.0, 0.875000
 7004, 0.0, 1.0, 0.875000
 8001, 0.0, 0.0, 1.000000
 8002, 1.0, 0.0, 1.000000
 8003, 1.0, 1.0, 1.000000
 8004, 0.0, 1.0, 1.000000
 9001, 0.0, 0.0, 1.125000
 9002, 1.0, 0.0, 1.125000
 9003, 1.0, 1.0, 1.125000
 9004, 0.0, 1.0, 1.125000
 10001, 0.0, 0.0, 1.250000
 10002, 1.0, 0.0, 1.250000
 10003, 1.0, 1.0, 1.250000
 10004, 0.0, 1.0, 1.250000
 11001, 0.0, 0.0, 1.375000
 11002, 1.0, 0.0, 1.375000
 11003, 1.0, 1.0, 1.375000
 11004, 0.0, 1.0, 1.375000
 12001, 0.0, 0.0, 1.500000
 12002, 1.0, 0.0, 1.500000
 12003, 1.0, 1.0, 1.500000
 12004, 0.0, 1.0, 1.500000
 13001, 0.0, 0.0, 1.625000
 13002, 1.0, 0.0, 1.625000
 13003, 1.0, 1.0, 1.625000
 13004, 0.0, 1.0, 1.625000
 14001, 0.0, 0.0, 1.750000
 14002, 1.0, 0.0, 1.750000
 14003, 1.0, 1.0, 1.750000
 14004, 0.0, 1.0, 1.750000
 15001, 0.0, 0.0, 1.875000
 15002, 1.0, 0.0, 1.875000
 15003, 1.0, 1.0, 1.875000
 15004, 0.0, 1.0, 1.875000
 16001, 0.0, 0.0, 2.000000
 16002, 1.0, 0.0, 2.000000
 16003, 1.0, 1.0, 2.000000
 16004, 0.0, 1.0, 2.000000
 17001, 0.0, 0.0, 2.125000
 17002, 1.0, 0.0, 2.125000
 17003, 1.0, 1.0, 2.125000
 17004, 0.0, 1.0, 2.125000
 18001, 0.0, 0.0, 2.250000
 18002, 1.0, 0.0, 2.250000
 18003, 1.0, 1.0, 2.250000
 18004, 0.0, 1.0, 2.250000
 19001, 0.0, 0.0, 2.375000
 19002, 1.0, 0.0, 2.375000
 19003, 1.0, 1.0, 2.375000
 19004, 0.0, 1.0, 2.375000
 20001, 0.0, 0.0, 2.500000
 20002, 1.0, 0.0, 2.500000
 20003, 1.0, 1.0, 2.500000
 20004, 0.0, 1.0, 2.500000
 21001, 0.0, 0.0, 2.625000
 21002, 1.0, 0.0, 2.625000
 21003, 1.0, 1.0, 2.625000
 21004, 0.0, 1.0, 2.625000
 22001, 0.0, 0.0, 2.750000
 22002, 1.0, 0.0, 2.750000
 22003, 1.0, 1.0, 2.750000
 22004, 0.0, 1.0, 2.750000
 23001, 0.0, 0.0, 2.875000
 23002, 1.0, 0.0, 2.875000
 23003, 1.0, 1.0, 2.875000
 23004, 0.0, 1.0, 2.875000
 24001, 0.0, 0.0, 3.000000
 24002, 1.0, 0.0, 3.000000
 24003, 1.0, 1.0, 3.000000
 24004, 0.0, 1.0, 3.000000
 25001, 0.0, 0.0, 3.125000
 25002, 1.0, 0.0, 3.125000
 25003, 1.0, 1.0, 3.125000
 25004, 0.0, 1.0, 3.125000
 26001, 0.0, 0.0, 3.250000
 26002, 1.0, 0.0, 3.250000
 26003, 1.0, 1.0, 3.250000
 26004, 0.0, 1.0, 3.250000
 27001, 0.0, 0.0, 3.375000
 27002, 1.0, 0.0, 3.375000
 27003, 1.0, 1.0, 3.375000
 27004, 0.0, 1.0, 3.375000
 28001, 0.0, 0.0, 3.500000
 28002, 1.0, 0.0, 3.500000
 28003, 1.0, 1.0, 3.500000
 28004, 0.0, 1.0, 3.500000
 29001, 0.0, 0.0, 3.625000
 29002, 1.0, 0.0, 3.625000
 29003, 1.0, 1.0, 3.625000
 29004, 0.0, 1.0, 3.625000
 30001, 0.0, 0.0, 3.750000
 30002, 1.0, 0.0, 3.750000
 30003, 1.0, 1.0, 3.750000
 30004, 0.0, 1.0, 3.750000
 31001, 0.0, 0.0, 3.875000
 31002, 1.0, 0.0, 3.875000
 31003, 1.0, 1.0, 3.875000
 31004, 0.0, 1.0, 3.875000
 32001, 0.0, 0.0, 4.000000
 32002, 1.0, 0.0, 4.000000
 32003, 1.0, 1.0, 4.000000
 32004, 0.0, 1.0, 4.000000
*ELEMENT, TYPE=C3D8, ELSET=COL
 1, 1,2,3,4,1001,1002,1003,1004
 2, 1001,1002,1003,1004,2001,2002,2003,2004
 3, 2001,2002,2003,2004,3001,3002,3003,3004
 4, 3001,3002,3003,3004,4001,4002,4003,4004
 5, 4001,4002,4003,4004,5001,5002,5003,5004
 6, 5001,5002,5003,5004,6001,6002,6003,6004
 7, 6001,6002,6003,6004,7001,7002,7003,7004
 8, 7001,7002,7003,7004,8001,8002,8003,8004
 9, 8001,8002,8003,8004,9001,9002,9003,9004
 10, 9001,9002,9003,9004,10001,10002,10003,10004
 11, 10001,10002,10003,10004,11001,11002,11003,11004
 12, 11001,11002,11003,11004,12001,12002,12003,12004
 13, 12001,12002,12003,12004,13001,13002,13003,13004
 14, 13001,13002,13003,13004,14001,14002,14003,14004
 15, 14001,14002,14003,14004,15001,15002,15003,15004
 16, 15001,15002,15003,15004,16001,16002,16003,16004
 17, 16001,16002,16003,16004,17001,17002,17003,17004
 18, 17001,17002,17003,17004,18001,18002,18003,18004
 19, 18001,18002,18003,18004,19001,19002,19003,19004
 20, 19001,19002,19003,19004,20001,20002,20003,20004
 21, 20001,20002,20003,20004,21001,21002,21003,21004
 22, 21001,21002,21003,21004,22001,22002,22003,22004
 23, 22001,22002,22003,22004,23001,23002,23003,23004
 24, 23001,23002,23003,23004,24001,24002,24003,24004
 25, 24001,24002,24003,24004,25001,25002,25003,25004
 26, 25001,25002,25003,25004,26001,26002,26003,26004
 27, 26001,26002,26003,26004,27001,27002,27003,27004
 28, 27001,27002,27003,27004,28001,28002,28003,28004
 29, 28001,28002,28003,28004,29001,29002,29003,29004
 30, 29001,29002,29003,29004,30001,30002,30003,30004
 31, 30001,30002,30003,30004,31001,31002,31003,31004
 32, 31001,31002,31003,31004,32001,32002,32003,32004
*SOLID SECTION, ELSET=COL, MATERIAL=BIOFILM
*MATERIAL, NAME=BIOFILM
*USER MATERIAL, CONSTANTS=5
** E, nu, beta_depth(CLSM), intercept(CLSM), mode(1=iso volume-matched)
 5000.0, 0.450, -10.405914, 2.165960, 1.0
*DEPVAR
 3
*NSET, NSET=ALLN
 1,2,3,4,1001,1002,1003,1004,2001,2002,2003,2004,3001,3002,3003,3004
 4001,4002,4003,4004,5001,5002,5003,5004,6001,6002,6003,6004,7001,7002,7003,7004
 8001,8002,8003,8004,9001,9002,9003,9004,10001,10002,10003,10004,11001,11002,11003,11004
 12001,12002,12003,12004,13001,13002,13003,13004,14001,14002,14003,14004,15001,15002,15003,15004
 16001,16002,16003,16004,17001,17002,17003,17004,18001,18002,18003,18004,19001,19002,19003,19004
 20001,20002,20003,20004,21001,21002,21003,21004,22001,22002,22003,22004,23001,23002,23003,23004
 24001,24002,24003,24004,25001,25002,25003,25004,26001,26002,26003,26004,27001,27002,27003,27004
 28001,28002,28003,28004,29001,29002,29003,29004,30001,30002,30003,30004,31001,31002,31003,31004
 32001,32002,32003,32004
*NSET, NSET=XF
 1,4,1001,1004,2001,2004,3001,3004,4001,4004,5001,5004,6001,6004,7001,7004,8001,8004,9001,9004,10001,10004,11001,11004,12001,12004,13001,13004,14001,14004,15001,15004,16001,16004,17001,17004,18001,18004,19001,19004,20001,20004,21001,21004,22001,22004,23001,23004,24001,24004,25001,25004,26001,26004,27001,27004,28001,28004,29001,29004,30001,30004,31001,31004,32001,32004
*NSET, NSET=XR
 2,3,1002,1003,2002,2003,3002,3003,4002,4003,5002,5003,6002,6003,7002,7003,8002,8003,9002,9003,10002,10003,11002,11003,12002,12003,13002,13003,14002,14003,15002,15003,16002,16003,17002,17003,18002,18003,19002,19003,20002,20003,21002,21003,22002,22003,23002,23003,24002,24003,25002,25003,26002,26003,27002,27003,28002,28003,29002,29003,30002,30003,31002,31003,32002,32003
*NSET, NSET=YF
 1,2,1001,1002,2001,2002,3001,3002,4001,4002,5001,5002,6001,6002,7001,7002,8001,8002,9001,9002,10001,10002,11001,11002,12001,12002,13001,13002,14001,14002,15001,15002,16001,16002,17001,17002,18001,18002,19001,19002,20001,20002,21001,21002,22001,22002,23001,23002,24001,24002,25001,25002,26001,26002,27001,27002,28001,28002,29001,29002,30001,30002,31001,31002,32001,32002
*NSET, NSET=YR
 3,4,1003,1004,2003,2004,3003,3004,4003,4004,5003,5004,6003,6004,7003,7004,8003,8004,9003,9004,10003,10004,11003,11004,12003,12004,13003,13004,14003,14004,15003,15004,16003,16004,17003,17004,18003,18004,19003,19004,20003,20004,21003,21004,22003,22004,23003,23004,24003,24004,25003,25004,26003,26004,27003,27004,28003,28004,29003,29004,30003,30004,31003,31004,32003,32004
*NSET, NSET=ZB
 1,2,3,4
*INITIAL CONDITIONS, TYPE=FIELD, VARIABLE=1
 ALLN, 0.0
*BOUNDARY
 XF, 1, 1
 XR, 1, 1
 YF, 2, 2
 YR, 2, 2
 ZB, 3, 3
*STEP, NLGEOM=YES, INC=200
 Ramp phi_Pg(z) 0 -> profile; isotropic confined growth -> residual sigma_xx(z)
*STATIC
 0.02, 1.0, 1.0E-5, 0.05
*FIELD, VARIABLE=1
 1, 0.158200
 2, 0.158200
 3, 0.158200
 4, 0.158200
 1001, 0.166271
 1002, 0.166271
 1003, 0.166271
 1004, 0.166271
 2001, 0.174343
 2002, 0.174343
 2003, 0.174343
 2004, 0.174343
 3001, 0.182414
 3002, 0.182414
 3003, 0.182414
 3004, 0.182414
 4001, 0.189173
 4002, 0.189173
 4003, 0.189173
 4004, 0.189173
 5001, 0.195413
 5002, 0.195413
 5003, 0.195413
 5004, 0.195413
 6001, 0.201654
 6002, 0.201654
 6003, 0.201654
 6004, 0.201654
 7001, 0.207894
 7002, 0.207894
 7003, 0.207894
 7004, 0.207894
 8001, 0.209686
 8002, 0.209686
 8003, 0.209686
 8004, 0.209686
 9001, 0.208687
 9002, 0.208687
 9003, 0.208687
 9004, 0.208687
 10001, 0.207687
 10002, 0.207687
 10003, 0.207687
 10004, 0.207687
 11001, 0.206688
 11002, 0.206688
 11003, 0.206688
 11004, 0.206688
 12001, 0.204702
 12002, 0.204702
 12003, 0.204702
 12004, 0.204702
 13001, 0.201777
 13002, 0.201777
 13003, 0.201777
 13004, 0.201777
 14001, 0.198852
 14002, 0.198852
 14003, 0.198852
 14004, 0.198852
 15001, 0.195927
 15002, 0.195927
 15003, 0.195927
 15004, 0.195927
 16001, 0.193182
 16002, 0.193182
 16003, 0.193182
 16004, 0.193182
 17001, 0.190695
 17002, 0.190695
 17003, 0.190695
 17004, 0.190695
 18001, 0.188209
 18002, 0.188209
 18003, 0.188209
 18004, 0.188209
 19001, 0.185723
 19002, 0.185723
 19003, 0.185723
 19004, 0.185723
 20001, 0.184397
 20002, 0.184397
 20003, 0.184397
 20004, 0.184397
 21001, 0.185689
 21002, 0.185689
 21003, 0.185689
 21004, 0.185689
 22001, 0.186981
 22002, 0.186981
 22003, 0.186981
 22004, 0.186981
 23001, 0.188273
 23002, 0.188273
 23003, 0.188273
 23004, 0.188273
 24001, 0.189265
 24002, 0.189265
 24003, 0.189265
 24004, 0.189265
 25001, 0.189094
 25002, 0.189094
 25003, 0.189094
 25004, 0.189094
 26001, 0.188924
 26002, 0.188924
 26003, 0.188924
 26004, 0.188924
 27001, 0.188753
 27002, 0.188753
 27003, 0.188753
 27004, 0.188753
 28001, 0.188068
 28002, 0.188068
 28003, 0.188068
 28004, 0.188068
 29001, 0.182876
 29002, 0.182876
 29003, 0.182876
 29004, 0.182876
 30001, 0.177684
 30002, 0.177684
 30003, 0.177684
 30004, 0.177684
 31001, 0.172492
 31002, 0.172492
 31003, 0.172492
 31004, 0.172492
 32001, 0.167300
 32002, 0.167300
 32003, 0.167300
 32004, 0.167300
*OUTPUT, FIELD
*NODE OUTPUT
 U
*ELEMENT OUTPUT, POSITION=CENTROID
 S, E, SDV, COORD
*END STEP
