*HEADING
 Biofilm growth column (4 C3D8) — depth-graded isotropic growth -> residual stress
** Laterally-confined film: u_x=0 on x-faces, u_y=0 on y-faces, u_z=0 at z=0, top free.
*NODE
 1, 0.0, 0.0, 0.000000
 2, 1.0, 0.0, 0.000000
 3, 1.0, 1.0, 0.000000
 4, 0.0, 1.0, 0.000000
 101, 0.0, 0.0, 0.250000
 102, 1.0, 0.0, 0.250000
 103, 1.0, 1.0, 0.250000
 104, 0.0, 1.0, 0.250000
 201, 0.0, 0.0, 0.500000
 202, 1.0, 0.0, 0.500000
 203, 1.0, 1.0, 0.500000
 204, 0.0, 1.0, 0.500000
 301, 0.0, 0.0, 0.750000
 302, 1.0, 0.0, 0.750000
 303, 1.0, 1.0, 0.750000
 304, 0.0, 1.0, 0.750000
 401, 0.0, 0.0, 1.000000
 402, 1.0, 0.0, 1.000000
 403, 1.0, 1.0, 1.000000
 404, 0.0, 1.0, 1.000000
*ELEMENT, TYPE=C3D8, ELSET=COL
 1, 1,2,3,4,101,102,103,104
 2, 101,102,103,104,201,202,203,204
 3, 201,202,203,204,301,302,303,304
 4, 301,302,303,304,401,402,403,404
*SOLID SECTION, ELSET=COL, MATERIAL=BIOFILM
*MATERIAL, NAME=BIOFILM
*USER MATERIAL, CONSTANTS=2
 5000., 0.45
*DEPVAR
 1
*NSET, NSET=XF
 1,4,101,104,201,204,301,304,401,404
*NSET, NSET=XR
 2,3,102,103,202,203,302,303,402,403
*NSET, NSET=YF
 1,2,101,102,201,202,301,302,401,402
*NSET, NSET=YR
 3,4,103,104,203,204,303,304,403,404
*NSET, NSET=ZB
 1,2,3,4
*BOUNDARY
 XF, 1, 1
 XR, 1, 1
 YF, 2, 2
 YR, 2, 2
 ZB, 3, 3
*STEP, NLGEOM=YES, INC=100
 Depth-graded growth -> residual stress
*STATIC
 0.05, 1.0, 1.0E-4, 0.05
*OUTPUT, FIELD
*NODE OUTPUT
 U
*ELEMENT OUTPUT, POSITION=CENTROID
 S, E, SDV, COORD
*OUTPUT, HISTORY, VARIABLE=PRESELECT
*END STEP
