*HEADING
 Socket-free depth-graded growth column (32 C3D8), cond=DH, CLSM beta=4.295 ic=-0.3343
** Laterally confined; phi_Pg(z) as FIELD var 1; iso volume-matched growth -> sigma_xx(z).
*NODE
 1, 0.0, 0.0, 0.000000
 2, 1.0, 0.0, 0.000000
 3, 1.0, 1.0, 0.000000
 4, 0.0, 1.0, 0.000000
 101, 0.0, 0.0, 0.031250
 102, 1.0, 0.0, 0.031250
 103, 1.0, 1.0, 0.031250
 104, 0.0, 1.0, 0.031250
 201, 0.0, 0.0, 0.062500
 202, 1.0, 0.0, 0.062500
 203, 1.0, 1.0, 0.062500
 204, 0.0, 1.0, 0.062500
 301, 0.0, 0.0, 0.093750
 302, 1.0, 0.0, 0.093750
 303, 1.0, 1.0, 0.093750
 304, 0.0, 1.0, 0.093750
 401, 0.0, 0.0, 0.125000
 402, 1.0, 0.0, 0.125000
 403, 1.0, 1.0, 0.125000
 404, 0.0, 1.0, 0.125000
 501, 0.0, 0.0, 0.156250
 502, 1.0, 0.0, 0.156250
 503, 1.0, 1.0, 0.156250
 504, 0.0, 1.0, 0.156250
 601, 0.0, 0.0, 0.187500
 602, 1.0, 0.0, 0.187500
 603, 1.0, 1.0, 0.187500
 604, 0.0, 1.0, 0.187500
 701, 0.0, 0.0, 0.218750
 702, 1.0, 0.0, 0.218750
 703, 1.0, 1.0, 0.218750
 704, 0.0, 1.0, 0.218750
 801, 0.0, 0.0, 0.250000
 802, 1.0, 0.0, 0.250000
 803, 1.0, 1.0, 0.250000
 804, 0.0, 1.0, 0.250000
 901, 0.0, 0.0, 0.281250
 902, 1.0, 0.0, 0.281250
 903, 1.0, 1.0, 0.281250
 904, 0.0, 1.0, 0.281250
 1001, 0.0, 0.0, 0.312500
 1002, 1.0, 0.0, 0.312500
 1003, 1.0, 1.0, 0.312500
 1004, 0.0, 1.0, 0.312500
 1101, 0.0, 0.0, 0.343750
 1102, 1.0, 0.0, 0.343750
 1103, 1.0, 1.0, 0.343750
 1104, 0.0, 1.0, 0.343750
 1201, 0.0, 0.0, 0.375000
 1202, 1.0, 0.0, 0.375000
 1203, 1.0, 1.0, 0.375000
 1204, 0.0, 1.0, 0.375000
 1301, 0.0, 0.0, 0.406250
 1302, 1.0, 0.0, 0.406250
 1303, 1.0, 1.0, 0.406250
 1304, 0.0, 1.0, 0.406250
 1401, 0.0, 0.0, 0.437500
 1402, 1.0, 0.0, 0.437500
 1403, 1.0, 1.0, 0.437500
 1404, 0.0, 1.0, 0.437500
 1501, 0.0, 0.0, 0.468750
 1502, 1.0, 0.0, 0.468750
 1503, 1.0, 1.0, 0.468750
 1504, 0.0, 1.0, 0.468750
 1601, 0.0, 0.0, 0.500000
 1602, 1.0, 0.0, 0.500000
 1603, 1.0, 1.0, 0.500000
 1604, 0.0, 1.0, 0.500000
 1701, 0.0, 0.0, 0.531250
 1702, 1.0, 0.0, 0.531250
 1703, 1.0, 1.0, 0.531250
 1704, 0.0, 1.0, 0.531250
 1801, 0.0, 0.0, 0.562500
 1802, 1.0, 0.0, 0.562500
 1803, 1.0, 1.0, 0.562500
 1804, 0.0, 1.0, 0.562500
 1901, 0.0, 0.0, 0.593750
 1902, 1.0, 0.0, 0.593750
 1903, 1.0, 1.0, 0.593750
 1904, 0.0, 1.0, 0.593750
 2001, 0.0, 0.0, 0.625000
 2002, 1.0, 0.0, 0.625000
 2003, 1.0, 1.0, 0.625000
 2004, 0.0, 1.0, 0.625000
 2101, 0.0, 0.0, 0.656250
 2102, 1.0, 0.0, 0.656250
 2103, 1.0, 1.0, 0.656250
 2104, 0.0, 1.0, 0.656250
 2201, 0.0, 0.0, 0.687500
 2202, 1.0, 0.0, 0.687500
 2203, 1.0, 1.0, 0.687500
 2204, 0.0, 1.0, 0.687500
 2301, 0.0, 0.0, 0.718750
 2302, 1.0, 0.0, 0.718750
 2303, 1.0, 1.0, 0.718750
 2304, 0.0, 1.0, 0.718750
 2401, 0.0, 0.0, 0.750000
 2402, 1.0, 0.0, 0.750000
 2403, 1.0, 1.0, 0.750000
 2404, 0.0, 1.0, 0.750000
 2501, 0.0, 0.0, 0.781250
 2502, 1.0, 0.0, 0.781250
 2503, 1.0, 1.0, 0.781250
 2504, 0.0, 1.0, 0.781250
 2601, 0.0, 0.0, 0.812500
 2602, 1.0, 0.0, 0.812500
 2603, 1.0, 1.0, 0.812500
 2604, 0.0, 1.0, 0.812500
 2701, 0.0, 0.0, 0.843750
 2702, 1.0, 0.0, 0.843750
 2703, 1.0, 1.0, 0.843750
 2704, 0.0, 1.0, 0.843750
 2801, 0.0, 0.0, 0.875000
 2802, 1.0, 0.0, 0.875000
 2803, 1.0, 1.0, 0.875000
 2804, 0.0, 1.0, 0.875000
 2901, 0.0, 0.0, 0.906250
 2902, 1.0, 0.0, 0.906250
 2903, 1.0, 1.0, 0.906250
 2904, 0.0, 1.0, 0.906250
 3001, 0.0, 0.0, 0.937500
 3002, 1.0, 0.0, 0.937500
 3003, 1.0, 1.0, 0.937500
 3004, 0.0, 1.0, 0.937500
 3101, 0.0, 0.0, 0.968750
 3102, 1.0, 0.0, 0.968750
 3103, 1.0, 1.0, 0.968750
 3104, 0.0, 1.0, 0.968750
 3201, 0.0, 0.0, 1.000000
 3202, 1.0, 0.0, 1.000000
 3203, 1.0, 1.0, 1.000000
 3204, 0.0, 1.0, 1.000000
*ELEMENT, TYPE=C3D8, ELSET=COL
 1, 1,2,3,4,101,102,103,104
 2, 101,102,103,104,201,202,203,204
 3, 201,202,203,204,301,302,303,304
 4, 301,302,303,304,401,402,403,404
 5, 401,402,403,404,501,502,503,504
 6, 501,502,503,504,601,602,603,604
 7, 601,602,603,604,701,702,703,704
 8, 701,702,703,704,801,802,803,804
 9, 801,802,803,804,901,902,903,904
 10, 901,902,903,904,1001,1002,1003,1004
 11, 1001,1002,1003,1004,1101,1102,1103,1104
 12, 1101,1102,1103,1104,1201,1202,1203,1204
 13, 1201,1202,1203,1204,1301,1302,1303,1304
 14, 1301,1302,1303,1304,1401,1402,1403,1404
 15, 1401,1402,1403,1404,1501,1502,1503,1504
 16, 1501,1502,1503,1504,1601,1602,1603,1604
 17, 1601,1602,1603,1604,1701,1702,1703,1704
 18, 1701,1702,1703,1704,1801,1802,1803,1804
 19, 1801,1802,1803,1804,1901,1902,1903,1904
 20, 1901,1902,1903,1904,2001,2002,2003,2004
 21, 2001,2002,2003,2004,2101,2102,2103,2104
 22, 2101,2102,2103,2104,2201,2202,2203,2204
 23, 2201,2202,2203,2204,2301,2302,2303,2304
 24, 2301,2302,2303,2304,2401,2402,2403,2404
 25, 2401,2402,2403,2404,2501,2502,2503,2504
 26, 2501,2502,2503,2504,2601,2602,2603,2604
 27, 2601,2602,2603,2604,2701,2702,2703,2704
 28, 2701,2702,2703,2704,2801,2802,2803,2804
 29, 2801,2802,2803,2804,2901,2902,2903,2904
 30, 2901,2902,2903,2904,3001,3002,3003,3004
 31, 3001,3002,3003,3004,3101,3102,3103,3104
 32, 3101,3102,3103,3104,3201,3202,3203,3204
*SOLID SECTION, ELSET=COL, MATERIAL=BIOFILM
*MATERIAL, NAME=BIOFILM
*USER MATERIAL, CONSTANTS=5
** E, nu, beta_depth(CLSM), intercept(CLSM), mode(1=iso volume-matched)
 5000.0, 0.450, 4.295160, -0.334306, 1.0
*DEPVAR
 3
*NSET, NSET=ALLN
 1,2,3,4,101,102,103,104,201,202,203,204,301,302,303,304
 401,402,403,404,501,502,503,504,601,602,603,604,701,702,703,704
 801,802,803,804,901,902,903,904,1001,1002,1003,1004,1101,1102,1103,1104
 1201,1202,1203,1204,1301,1302,1303,1304,1401,1402,1403,1404,1501,1502,1503,1504
 1601,1602,1603,1604,1701,1702,1703,1704,1801,1802,1803,1804,1901,1902,1903,1904
 2001,2002,2003,2004,2101,2102,2103,2104,2201,2202,2203,2204,2301,2302,2303,2304
 2401,2402,2403,2404,2501,2502,2503,2504,2601,2602,2603,2604,2701,2702,2703,2704
 2801,2802,2803,2804,2901,2902,2903,2904,3001,3002,3003,3004,3101,3102,3103,3104
 3201,3202,3203,3204
*NSET, NSET=XF
 1,4,101,104,201,204,301,304,401,404,501,504,601,604,701,704,801,804,901,904,1001,1004,1101,1104,1201,1204,1301,1304,1401,1404,1501,1504,1601,1604,1701,1704,1801,1804,1901,1904,2001,2004,2101,2104,2201,2204,2301,2304,2401,2404,2501,2504,2601,2604,2701,2704,2801,2804,2901,2904,3001,3004,3101,3104,3201,3204
*NSET, NSET=XR
 2,3,102,103,202,203,302,303,402,403,502,503,602,603,702,703,802,803,902,903,1002,1003,1102,1103,1202,1203,1302,1303,1402,1403,1502,1503,1602,1603,1702,1703,1802,1803,1902,1903,2002,2003,2102,2103,2202,2203,2302,2303,2402,2403,2502,2503,2602,2603,2702,2703,2802,2803,2902,2903,3002,3003,3102,3103,3202,3203
*NSET, NSET=YF
 1,2,101,102,201,202,301,302,401,402,501,502,601,602,701,702,801,802,901,902,1001,1002,1101,1102,1201,1202,1301,1302,1401,1402,1501,1502,1601,1602,1701,1702,1801,1802,1901,1902,2001,2002,2101,2102,2201,2202,2301,2302,2401,2402,2501,2502,2601,2602,2701,2702,2801,2802,2901,2902,3001,3002,3101,3102,3201,3202
*NSET, NSET=YR
 3,4,103,104,203,204,303,304,403,404,503,504,603,604,703,704,803,804,903,904,1003,1004,1103,1104,1203,1204,1303,1304,1403,1404,1503,1504,1603,1604,1703,1704,1803,1804,1903,1904,2003,2004,2103,2104,2203,2204,2303,2304,2403,2404,2503,2504,2603,2604,2703,2704,2803,2804,2903,2904,3003,3004,3103,3104,3203,3204
*NSET, NSET=ZB
 1,2,3,4
*INITIAL CONDITIONS, TYPE=FIELD, VARIABLE=1
 ALLN, 0.0
*BOUNDARY
 XF, 1, 1
 XR, 1, 1
 YF, 2, 2
 YR, 2, 2
 ZB, 3, 3
*STEP, NLGEOM=YES, INC=200
 Ramp phi_Pg(z) 0 -> profile; isotropic confined growth -> residual sigma_xx(z)
*STATIC
 0.02, 1.0, 1.0E-5, 0.05
*FIELD, VARIABLE=1
 1, 0.200000
 2, 0.200000
 3, 0.200000
 4, 0.200000
 101, 0.200000
 102, 0.200000
 103, 0.200000
 104, 0.200000
 201, 0.200000
 202, 0.200000
 203, 0.200000
 204, 0.200000
 301, 0.200000
 302, 0.200000
 303, 0.200000
 304, 0.200000
 401, 0.200000
 402, 0.200000
 403, 0.200000
 404, 0.200000
 501, 0.200000
 502, 0.200000
 503, 0.200000
 504, 0.200000
 601, 0.200000
 602, 0.200000
 603, 0.200000
 604, 0.200000
 701, 0.200000
 702, 0.200000
 703, 0.200000
 704, 0.200000
 801, 0.200000
 802, 0.200000
 803, 0.200000
 804, 0.200000
 901, 0.200000
 902, 0.200000
 903, 0.200000
 904, 0.200000
 1001, 0.200000
 1002, 0.200000
 1003, 0.200000
 1004, 0.200000
 1101, 0.200000
 1102, 0.200000
 1103, 0.200000
 1104, 0.200000
 1201, 0.200000
 1202, 0.200000
 1203, 0.200000
 1204, 0.200000
 1301, 0.200000
 1302, 0.200000
 1303, 0.200000
 1304, 0.200000
 1401, 0.200000
 1402, 0.200000
 1403, 0.200000
 1404, 0.200000
 1501, 0.200000
 1502, 0.200000
 1503, 0.200000
 1504, 0.200000
 1601, 0.200000
 1602, 0.200000
 1603, 0.200000
 1604, 0.200000
 1701, 0.200000
 1702, 0.200000
 1703, 0.200000
 1704, 0.200000
 1801, 0.200000
 1802, 0.200000
 1803, 0.200000
 1804, 0.200000
 1901, 0.200000
 1902, 0.200000
 1903, 0.200000
 1904, 0.200000
 2001, 0.200000
 2002, 0.200000
 2003, 0.200000
 2004, 0.200000
 2101, 0.200000
 2102, 0.200000
 2103, 0.200000
 2104, 0.200000
 2201, 0.200000
 2202, 0.200000
 2203, 0.200000
 2204, 0.200000
 2301, 0.200000
 2302, 0.200000
 2303, 0.200000
 2304, 0.200000
 2401, 0.200000
 2402, 0.200000
 2403, 0.200000
 2404, 0.200000
 2501, 0.200000
 2502, 0.200000
 2503, 0.200000
 2504, 0.200000
 2601, 0.200000
 2602, 0.200000
 2603, 0.200000
 2604, 0.200000
 2701, 0.200000
 2702, 0.200000
 2703, 0.200000
 2704, 0.200000
 2801, 0.200000
 2802, 0.200000
 2803, 0.200000
 2804, 0.200000
 2901, 0.200000
 2902, 0.200000
 2903, 0.200000
 2904, 0.200000
 3001, 0.200000
 3002, 0.200000
 3003, 0.200000
 3004, 0.200000
 3101, 0.200000
 3102, 0.200000
 3103, 0.200000
 3104, 0.200000
 3201, 0.200000
 3202, 0.200000
 3203, 0.200000
 3204, 0.200000
*OUTPUT, FIELD
*NODE OUTPUT
 U
*ELEMENT OUTPUT, POSITION=CENTROID
 S, E, SDV, COORD
*END STEP
