*HEADING
 Socket-free depth-graded growth column (16 C3D8), cond=CH, CLSM beta=-10.41 ic=2.166
** Laterally confined; phi_Pg(z) as FIELD var 1; iso volume-matched growth -> sigma_xx(z).
*NODE
 1, 0.0, 0.0, 0.000000
 2, 1.0, 0.0, 0.000000
 3, 1.0, 1.0, 0.000000
 4, 0.0, 1.0, 0.000000
 101, 0.0, 0.0, 0.062500
 102, 1.0, 0.0, 0.062500
 103, 1.0, 1.0, 0.062500
 104, 0.0, 1.0, 0.062500
 201, 0.0, 0.0, 0.125000
 202, 1.0, 0.0, 0.125000
 203, 1.0, 1.0, 0.125000
 204, 0.0, 1.0, 0.125000
 301, 0.0, 0.0, 0.187500
 302, 1.0, 0.0, 0.187500
 303, 1.0, 1.0, 0.187500
 304, 0.0, 1.0, 0.187500
 401, 0.0, 0.0, 0.250000
 402, 1.0, 0.0, 0.250000
 403, 1.0, 1.0, 0.250000
 404, 0.0, 1.0, 0.250000
 501, 0.0, 0.0, 0.312500
 502, 1.0, 0.0, 0.312500
 503, 1.0, 1.0, 0.312500
 504, 0.0, 1.0, 0.312500
 601, 0.0, 0.0, 0.375000
 602, 1.0, 0.0, 0.375000
 603, 1.0, 1.0, 0.375000
 604, 0.0, 1.0, 0.375000
 701, 0.0, 0.0, 0.437500
 702, 1.0, 0.0, 0.437500
 703, 1.0, 1.0, 0.437500
 704, 0.0, 1.0, 0.437500
 801, 0.0, 0.0, 0.500000
 802, 1.0, 0.0, 0.500000
 803, 1.0, 1.0, 0.500000
 804, 0.0, 1.0, 0.500000
 901, 0.0, 0.0, 0.562500
 902, 1.0, 0.0, 0.562500
 903, 1.0, 1.0, 0.562500
 904, 0.0, 1.0, 0.562500
 1001, 0.0, 0.0, 0.625000
 1002, 1.0, 0.0, 0.625000
 1003, 1.0, 1.0, 0.625000
 1004, 0.0, 1.0, 0.625000
 1101, 0.0, 0.0, 0.687500
 1102, 1.0, 0.0, 0.687500
 1103, 1.0, 1.0, 0.687500
 1104, 0.0, 1.0, 0.687500
 1201, 0.0, 0.0, 0.750000
 1202, 1.0, 0.0, 0.750000
 1203, 1.0, 1.0, 0.750000
 1204, 0.0, 1.0, 0.750000
 1301, 0.0, 0.0, 0.812500
 1302, 1.0, 0.0, 0.812500
 1303, 1.0, 1.0, 0.812500
 1304, 0.0, 1.0, 0.812500
 1401, 0.0, 0.0, 0.875000
 1402, 1.0, 0.0, 0.875000
 1403, 1.0, 1.0, 0.875000
 1404, 0.0, 1.0, 0.875000
 1501, 0.0, 0.0, 0.937500
 1502, 1.0, 0.0, 0.937500
 1503, 1.0, 1.0, 0.937500
 1504, 0.0, 1.0, 0.937500
 1601, 0.0, 0.0, 1.000000
 1602, 1.0, 0.0, 1.000000
 1603, 1.0, 1.0, 1.000000
 1604, 0.0, 1.0, 1.000000
*ELEMENT, TYPE=C3D8, ELSET=COL
 1, 1,2,3,4,101,102,103,104
 2, 101,102,103,104,201,202,203,204
 3, 201,202,203,204,301,302,303,304
 4, 301,302,303,304,401,402,403,404
 5, 401,402,403,404,501,502,503,504
 6, 501,502,503,504,601,602,603,604
 7, 601,602,603,604,701,702,703,704
 8, 701,702,703,704,801,802,803,804
 9, 801,802,803,804,901,902,903,904
 10, 901,902,903,904,1001,1002,1003,1004
 11, 1001,1002,1003,1004,1101,1102,1103,1104
 12, 1101,1102,1103,1104,1201,1202,1203,1204
 13, 1201,1202,1203,1204,1301,1302,1303,1304
 14, 1301,1302,1303,1304,1401,1402,1403,1404
 15, 1401,1402,1403,1404,1501,1502,1503,1504
 16, 1501,1502,1503,1504,1601,1602,1603,1604
*SOLID SECTION, ELSET=COL, MATERIAL=BIOFILM
*MATERIAL, NAME=BIOFILM
*USER MATERIAL, CONSTANTS=5
** E, nu, beta_depth(CLSM), intercept(CLSM), mode(1=iso volume-matched)
 5000.0, 0.450, -10.405914, 2.165960, 1.0
*DEPVAR
 3
*NSET, NSET=ALLN
 1,2,3,4,101,102,103,104,201,202,203,204,301,302,303,304
 401,402,403,404,501,502,503,504,601,602,603,604,701,702,703,704
 801,802,803,804,901,902,903,904,1001,1002,1003,1004,1101,1102,1103,1104
 1201,1202,1203,1204,1301,1302,1303,1304,1401,1402,1403,1404,1501,1502,1503,1504
 1601,1602,1603,1604
*NSET, NSET=XF
 1,4,101,104,201,204,301,304,401,404,501,504,601,604,701,704,801,804,901,904,1001,1004,1101,1104,1201,1204,1301,1304,1401,1404,1501,1504,1601,1604
*NSET, NSET=XR
 2,3,102,103,202,203,302,303,402,403,502,503,602,603,702,703,802,803,902,903,1002,1003,1102,1103,1202,1203,1302,1303,1402,1403,1502,1503,1602,1603
*NSET, NSET=YF
 1,2,101,102,201,202,301,302,401,402,501,502,601,602,701,702,801,802,901,902,1001,1002,1101,1102,1201,1202,1301,1302,1401,1402,1501,1502,1601,1602
*NSET, NSET=YR
 3,4,103,104,203,204,303,304,403,404,503,504,603,604,703,704,803,804,903,904,1003,1004,1103,1104,1203,1204,1303,1304,1403,1404,1503,1504,1603,1604
*NSET, NSET=ZB
 1,2,3,4
*INITIAL CONDITIONS, TYPE=FIELD, VARIABLE=1
 ALLN, 0.0
*BOUNDARY
 XF, 1, 1
 XR, 1, 1
 YF, 2, 2
 YR, 2, 2
 ZB, 3, 3
*STEP, NLGEOM=YES, INC=200
 Ramp phi_Pg(z) 0 -> profile; isotropic confined growth -> residual sigma_xx(z)
*STATIC
 0.02, 1.0, 1.0E-5, 0.05
*FIELD, VARIABLE=1
 1, 0.158200
 2, 0.158200
 3, 0.158200
 4, 0.158200
 101, 0.174343
 102, 0.174343
 103, 0.174343
 104, 0.174343
 201, 0.189173
 202, 0.189173
 203, 0.189173
 204, 0.189173
 301, 0.201654
 302, 0.201654
 303, 0.201654
 304, 0.201654
 401, 0.209686
 402, 0.209686
 403, 0.209686
 404, 0.209686
 501, 0.207687
 502, 0.207687
 503, 0.207687
 504, 0.207687
 601, 0.204702
 602, 0.204702
 603, 0.204702
 604, 0.204702
 701, 0.198852
 702, 0.198852
 703, 0.198852
 704, 0.198852
 801, 0.193182
 802, 0.193182
 803, 0.193182
 804, 0.193182
 901, 0.188209
 902, 0.188209
 903, 0.188209
 904, 0.188209
 1001, 0.184397
 1002, 0.184397
 1003, 0.184397
 1004, 0.184397
 1101, 0.186981
 1102, 0.186981
 1103, 0.186981
 1104, 0.186981
 1201, 0.189265
 1202, 0.189265
 1203, 0.189265
 1204, 0.189265
 1301, 0.188924
 1302, 0.188924
 1303, 0.188924
 1304, 0.188924
 1401, 0.188068
 1402, 0.188068
 1403, 0.188068
 1404, 0.188068
 1501, 0.177684
 1502, 0.177684
 1503, 0.177684
 1504, 0.177684
 1601, 0.167300
 1602, 0.167300
 1603, 0.167300
 1604, 0.167300
*OUTPUT, FIELD
*NODE OUTPUT
 U
*ELEMENT OUTPUT, POSITION=CENTROID
 S, E, SDV, COORD
*END STEP
