*HEADING
 Biofilm film strip on COHESIVE base (12x1x8 C3D8 + 12 COH3D8) -> delamination
*NODE
 1, 0.000000, 0.000000, 0.000000
 2, 0.333333, 0.000000, 0.000000
 3, 0.666667, 0.000000, 0.000000
 4, 1.000000, 0.000000, 0.000000
 5, 1.333333, 0.000000, 0.000000
 6, 1.666667, 0.000000, 0.000000
 7, 2.000000, 0.000000, 0.000000
 8, 2.333333, 0.000000, 0.000000
 9, 2.666667, 0.000000, 0.000000
 10, 3.000000, 0.000000, 0.000000
 11, 3.333333, 0.000000, 0.000000
 12, 3.666667, 0.000000, 0.000000
 13, 4.000000, 0.000000, 0.000000
 14, 0.000000, 1.000000, 0.000000
 15, 0.333333, 1.000000, 0.000000
 16, 0.666667, 1.000000, 0.000000
 17, 1.000000, 1.000000, 0.000000
 18, 1.333333, 1.000000, 0.000000
 19, 1.666667, 1.000000, 0.000000
 20, 2.000000, 1.000000, 0.000000
 21, 2.333333, 1.000000, 0.000000
 22, 2.666667, 1.000000, 0.000000
 23, 3.000000, 1.000000, 0.000000
 24, 3.333333, 1.000000, 0.000000
 25, 3.666667, 1.000000, 0.000000
 26, 4.000000, 1.000000, 0.000000
 27, 0.000000, 0.000000, 0.125000
 28, 0.333333, 0.000000, 0.125000
 29, 0.666667, 0.000000, 0.125000
 30, 1.000000, 0.000000, 0.125000
 31, 1.333333, 0.000000, 0.125000
 32, 1.666667, 0.000000, 0.125000
 33, 2.000000, 0.000000, 0.125000
 34, 2.333333, 0.000000, 0.125000
 35, 2.666667, 0.000000, 0.125000
 36, 3.000000, 0.000000, 0.125000
 37, 3.333333, 0.000000, 0.125000
 38, 3.666667, 0.000000, 0.125000
 39, 4.000000, 0.000000, 0.125000
 40, 0.000000, 1.000000, 0.125000
 41, 0.333333, 1.000000, 0.125000
 42, 0.666667, 1.000000, 0.125000
 43, 1.000000, 1.000000, 0.125000
 44, 1.333333, 1.000000, 0.125000
 45, 1.666667, 1.000000, 0.125000
 46, 2.000000, 1.000000, 0.125000
 47, 2.333333, 1.000000, 0.125000
 48, 2.666667, 1.000000, 0.125000
 49, 3.000000, 1.000000, 0.125000
 50, 3.333333, 1.000000, 0.125000
 51, 3.666667, 1.000000, 0.125000
 52, 4.000000, 1.000000, 0.125000
 53, 0.000000, 0.000000, 0.250000
 54, 0.333333, 0.000000, 0.250000
 55, 0.666667, 0.000000, 0.250000
 56, 1.000000, 0.000000, 0.250000
 57, 1.333333, 0.000000, 0.250000
 58, 1.666667, 0.000000, 0.250000
 59, 2.000000, 0.000000, 0.250000
 60, 2.333333, 0.000000, 0.250000
 61, 2.666667, 0.000000, 0.250000
 62, 3.000000, 0.000000, 0.250000
 63, 3.333333, 0.000000, 0.250000
 64, 3.666667, 0.000000, 0.250000
 65, 4.000000, 0.000000, 0.250000
 66, 0.000000, 1.000000, 0.250000
 67, 0.333333, 1.000000, 0.250000
 68, 0.666667, 1.000000, 0.250000
 69, 1.000000, 1.000000, 0.250000
 70, 1.333333, 1.000000, 0.250000
 71, 1.666667, 1.000000, 0.250000
 72, 2.000000, 1.000000, 0.250000
 73, 2.333333, 1.000000, 0.250000
 74, 2.666667, 1.000000, 0.250000
 75, 3.000000, 1.000000, 0.250000
 76, 3.333333, 1.000000, 0.250000
 77, 3.666667, 1.000000, 0.250000
 78, 4.000000, 1.000000, 0.250000
 79, 0.000000, 0.000000, 0.375000
 80, 0.333333, 0.000000, 0.375000
 81, 0.666667, 0.000000, 0.375000
 82, 1.000000, 0.000000, 0.375000
 83, 1.333333, 0.000000, 0.375000
 84, 1.666667, 0.000000, 0.375000
 85, 2.000000, 0.000000, 0.375000
 86, 2.333333, 0.000000, 0.375000
 87, 2.666667, 0.000000, 0.375000
 88, 3.000000, 0.000000, 0.375000
 89, 3.333333, 0.000000, 0.375000
 90, 3.666667, 0.000000, 0.375000
 91, 4.000000, 0.000000, 0.375000
 92, 0.000000, 1.000000, 0.375000
 93, 0.333333, 1.000000, 0.375000
 94, 0.666667, 1.000000, 0.375000
 95, 1.000000, 1.000000, 0.375000
 96, 1.333333, 1.000000, 0.375000
 97, 1.666667, 1.000000, 0.375000
 98, 2.000000, 1.000000, 0.375000
 99, 2.333333, 1.000000, 0.375000
 100, 2.666667, 1.000000, 0.375000
 101, 3.000000, 1.000000, 0.375000
 102, 3.333333, 1.000000, 0.375000
 103, 3.666667, 1.000000, 0.375000
 104, 4.000000, 1.000000, 0.375000
 105, 0.000000, 0.000000, 0.500000
 106, 0.333333, 0.000000, 0.500000
 107, 0.666667, 0.000000, 0.500000
 108, 1.000000, 0.000000, 0.500000
 109, 1.333333, 0.000000, 0.500000
 110, 1.666667, 0.000000, 0.500000
 111, 2.000000, 0.000000, 0.500000
 112, 2.333333, 0.000000, 0.500000
 113, 2.666667, 0.000000, 0.500000
 114, 3.000000, 0.000000, 0.500000
 115, 3.333333, 0.000000, 0.500000
 116, 3.666667, 0.000000, 0.500000
 117, 4.000000, 0.000000, 0.500000
 118, 0.000000, 1.000000, 0.500000
 119, 0.333333, 1.000000, 0.500000
 120, 0.666667, 1.000000, 0.500000
 121, 1.000000, 1.000000, 0.500000
 122, 1.333333, 1.000000, 0.500000
 123, 1.666667, 1.000000, 0.500000
 124, 2.000000, 1.000000, 0.500000
 125, 2.333333, 1.000000, 0.500000
 126, 2.666667, 1.000000, 0.500000
 127, 3.000000, 1.000000, 0.500000
 128, 3.333333, 1.000000, 0.500000
 129, 3.666667, 1.000000, 0.500000
 130, 4.000000, 1.000000, 0.500000
 131, 0.000000, 0.000000, 0.625000
 132, 0.333333, 0.000000, 0.625000
 133, 0.666667, 0.000000, 0.625000
 134, 1.000000, 0.000000, 0.625000
 135, 1.333333, 0.000000, 0.625000
 136, 1.666667, 0.000000, 0.625000
 137, 2.000000, 0.000000, 0.625000
 138, 2.333333, 0.000000, 0.625000
 139, 2.666667, 0.000000, 0.625000
 140, 3.000000, 0.000000, 0.625000
 141, 3.333333, 0.000000, 0.625000
 142, 3.666667, 0.000000, 0.625000
 143, 4.000000, 0.000000, 0.625000
 144, 0.000000, 1.000000, 0.625000
 145, 0.333333, 1.000000, 0.625000
 146, 0.666667, 1.000000, 0.625000
 147, 1.000000, 1.000000, 0.625000
 148, 1.333333, 1.000000, 0.625000
 149, 1.666667, 1.000000, 0.625000
 150, 2.000000, 1.000000, 0.625000
 151, 2.333333, 1.000000, 0.625000
 152, 2.666667, 1.000000, 0.625000
 153, 3.000000, 1.000000, 0.625000
 154, 3.333333, 1.000000, 0.625000
 155, 3.666667, 1.000000, 0.625000
 156, 4.000000, 1.000000, 0.625000
 157, 0.000000, 0.000000, 0.750000
 158, 0.333333, 0.000000, 0.750000
 159, 0.666667, 0.000000, 0.750000
 160, 1.000000, 0.000000, 0.750000
 161, 1.333333, 0.000000, 0.750000
 162, 1.666667, 0.000000, 0.750000
 163, 2.000000, 0.000000, 0.750000
 164, 2.333333, 0.000000, 0.750000
 165, 2.666667, 0.000000, 0.750000
 166, 3.000000, 0.000000, 0.750000
 167, 3.333333, 0.000000, 0.750000
 168, 3.666667, 0.000000, 0.750000
 169, 4.000000, 0.000000, 0.750000
 170, 0.000000, 1.000000, 0.750000
 171, 0.333333, 1.000000, 0.750000
 172, 0.666667, 1.000000, 0.750000
 173, 1.000000, 1.000000, 0.750000
 174, 1.333333, 1.000000, 0.750000
 175, 1.666667, 1.000000, 0.750000
 176, 2.000000, 1.000000, 0.750000
 177, 2.333333, 1.000000, 0.750000
 178, 2.666667, 1.000000, 0.750000
 179, 3.000000, 1.000000, 0.750000
 180, 3.333333, 1.000000, 0.750000
 181, 3.666667, 1.000000, 0.750000
 182, 4.000000, 1.000000, 0.750000
 183, 0.000000, 0.000000, 0.875000
 184, 0.333333, 0.000000, 0.875000
 185, 0.666667, 0.000000, 0.875000
 186, 1.000000, 0.000000, 0.875000
 187, 1.333333, 0.000000, 0.875000
 188, 1.666667, 0.000000, 0.875000
 189, 2.000000, 0.000000, 0.875000
 190, 2.333333, 0.000000, 0.875000
 191, 2.666667, 0.000000, 0.875000
 192, 3.000000, 0.000000, 0.875000
 193, 3.333333, 0.000000, 0.875000
 194, 3.666667, 0.000000, 0.875000
 195, 4.000000, 0.000000, 0.875000
 196, 0.000000, 1.000000, 0.875000
 197, 0.333333, 1.000000, 0.875000
 198, 0.666667, 1.000000, 0.875000
 199, 1.000000, 1.000000, 0.875000
 200, 1.333333, 1.000000, 0.875000
 201, 1.666667, 1.000000, 0.875000
 202, 2.000000, 1.000000, 0.875000
 203, 2.333333, 1.000000, 0.875000
 204, 2.666667, 1.000000, 0.875000
 205, 3.000000, 1.000000, 0.875000
 206, 3.333333, 1.000000, 0.875000
 207, 3.666667, 1.000000, 0.875000
 208, 4.000000, 1.000000, 0.875000
 209, 0.000000, 0.000000, 1.000000
 210, 0.333333, 0.000000, 1.000000
 211, 0.666667, 0.000000, 1.000000
 212, 1.000000, 0.000000, 1.000000
 213, 1.333333, 0.000000, 1.000000
 214, 1.666667, 0.000000, 1.000000
 215, 2.000000, 0.000000, 1.000000
 216, 2.333333, 0.000000, 1.000000
 217, 2.666667, 0.000000, 1.000000
 218, 3.000000, 0.000000, 1.000000
 219, 3.333333, 0.000000, 1.000000
 220, 3.666667, 0.000000, 1.000000
 221, 4.000000, 0.000000, 1.000000
 222, 0.000000, 1.000000, 1.000000
 223, 0.333333, 1.000000, 1.000000
 224, 0.666667, 1.000000, 1.000000
 225, 1.000000, 1.000000, 1.000000
 226, 1.333333, 1.000000, 1.000000
 227, 1.666667, 1.000000, 1.000000
 228, 2.000000, 1.000000, 1.000000
 229, 2.333333, 1.000000, 1.000000
 230, 2.666667, 1.000000, 1.000000
 231, 3.000000, 1.000000, 1.000000
 232, 3.333333, 1.000000, 1.000000
 233, 3.666667, 1.000000, 1.000000
 234, 4.000000, 1.000000, 1.000000
 334, 0.000000, 0.000000, -0.020000
 335, 0.333333, 0.000000, -0.020000
 336, 0.666667, 0.000000, -0.020000
 337, 1.000000, 0.000000, -0.020000
 338, 1.333333, 0.000000, -0.020000
 339, 1.666667, 0.000000, -0.020000
 340, 2.000000, 0.000000, -0.020000
 341, 2.333333, 0.000000, -0.020000
 342, 2.666667, 0.000000, -0.020000
 343, 3.000000, 0.000000, -0.020000
 344, 3.333333, 0.000000, -0.020000
 345, 3.666667, 0.000000, -0.020000
 346, 4.000000, 0.000000, -0.020000
 347, 0.000000, 1.000000, -0.020000
 348, 0.333333, 1.000000, -0.020000
 349, 0.666667, 1.000000, -0.020000
 350, 1.000000, 1.000000, -0.020000
 351, 1.333333, 1.000000, -0.020000
 352, 1.666667, 1.000000, -0.020000
 353, 2.000000, 1.000000, -0.020000
 354, 2.333333, 1.000000, -0.020000
 355, 2.666667, 1.000000, -0.020000
 356, 3.000000, 1.000000, -0.020000
 357, 3.333333, 1.000000, -0.020000
 358, 3.666667, 1.000000, -0.020000
 359, 4.000000, 1.000000, -0.020000
*ELEMENT, TYPE=C3D8, ELSET=FILM
 1, 1,2,15,14,27,28,41,40
 2, 2,3,16,15,28,29,42,41
 3, 3,4,17,16,29,30,43,42
 4, 4,5,18,17,30,31,44,43
 5, 5,6,19,18,31,32,45,44
 6, 6,7,20,19,32,33,46,45
 7, 7,8,21,20,33,34,47,46
 8, 8,9,22,21,34,35,48,47
 9, 9,10,23,22,35,36,49,48
 10, 10,11,24,23,36,37,50,49
 11, 11,12,25,24,37,38,51,50
 12, 12,13,26,25,38,39,52,51
 13, 27,28,41,40,53,54,67,66
 14, 28,29,42,41,54,55,68,67
 15, 29,30,43,42,55,56,69,68
 16, 30,31,44,43,56,57,70,69
 17, 31,32,45,44,57,58,71,70
 18, 32,33,46,45,58,59,72,71
 19, 33,34,47,46,59,60,73,72
 20, 34,35,48,47,60,61,74,73
 21, 35,36,49,48,61,62,75,74
 22, 36,37,50,49,62,63,76,75
 23, 37,38,51,50,63,64,77,76
 24, 38,39,52,51,64,65,78,77
 25, 53,54,67,66,79,80,93,92
 26, 54,55,68,67,80,81,94,93
 27, 55,56,69,68,81,82,95,94
 28, 56,57,70,69,82,83,96,95
 29, 57,58,71,70,83,84,97,96
 30, 58,59,72,71,84,85,98,97
 31, 59,60,73,72,85,86,99,98
 32, 60,61,74,73,86,87,100,99
 33, 61,62,75,74,87,88,101,100
 34, 62,63,76,75,88,89,102,101
 35, 63,64,77,76,89,90,103,102
 36, 64,65,78,77,90,91,104,103
 37, 79,80,93,92,105,106,119,118
 38, 80,81,94,93,106,107,120,119
 39, 81,82,95,94,107,108,121,120
 40, 82,83,96,95,108,109,122,121
 41, 83,84,97,96,109,110,123,122
 42, 84,85,98,97,110,111,124,123
 43, 85,86,99,98,111,112,125,124
 44, 86,87,100,99,112,113,126,125
 45, 87,88,101,100,113,114,127,126
 46, 88,89,102,101,114,115,128,127
 47, 89,90,103,102,115,116,129,128
 48, 90,91,104,103,116,117,130,129
 49, 105,106,119,118,131,132,145,144
 50, 106,107,120,119,132,133,146,145
 51, 107,108,121,120,133,134,147,146
 52, 108,109,122,121,134,135,148,147
 53, 109,110,123,122,135,136,149,148
 54, 110,111,124,123,136,137,150,149
 55, 111,112,125,124,137,138,151,150
 56, 112,113,126,125,138,139,152,151
 57, 113,114,127,126,139,140,153,152
 58, 114,115,128,127,140,141,154,153
 59, 115,116,129,128,141,142,155,154
 60, 116,117,130,129,142,143,156,155
 61, 131,132,145,144,157,158,171,170
 62, 132,133,146,145,158,159,172,171
 63, 133,134,147,146,159,160,173,172
 64, 134,135,148,147,160,161,174,173
 65, 135,136,149,148,161,162,175,174
 66, 136,137,150,149,162,163,176,175
 67, 137,138,151,150,163,164,177,176
 68, 138,139,152,151,164,165,178,177
 69, 139,140,153,152,165,166,179,178
 70, 140,141,154,153,166,167,180,179
 71, 141,142,155,154,167,168,181,180
 72, 142,143,156,155,168,169,182,181
 73, 157,158,171,170,183,184,197,196
 74, 158,159,172,171,184,185,198,197
 75, 159,160,173,172,185,186,199,198
 76, 160,161,174,173,186,187,200,199
 77, 161,162,175,174,187,188,201,200
 78, 162,163,176,175,188,189,202,201
 79, 163,164,177,176,189,190,203,202
 80, 164,165,178,177,190,191,204,203
 81, 165,166,179,178,191,192,205,204
 82, 166,167,180,179,192,193,206,205
 83, 167,168,181,180,193,194,207,206
 84, 168,169,182,181,194,195,208,207
 85, 183,184,197,196,209,210,223,222
 86, 184,185,198,197,210,211,224,223
 87, 185,186,199,198,211,212,225,224
 88, 186,187,200,199,212,213,226,225
 89, 187,188,201,200,213,214,227,226
 90, 188,189,202,201,214,215,228,227
 91, 189,190,203,202,215,216,229,228
 92, 190,191,204,203,216,217,230,229
 93, 191,192,205,204,217,218,231,230
 94, 192,193,206,205,218,219,232,231
 95, 193,194,207,206,219,220,233,232
 96, 194,195,208,207,220,221,234,233
*ELEMENT, TYPE=COH3D8, ELSET=COH
 97, 334,335,348,347,1,2,15,14
 98, 335,336,349,348,2,3,16,15
 99, 336,337,350,349,3,4,17,16
 100, 337,338,351,350,4,5,18,17
 101, 338,339,352,351,5,6,19,18
 102, 339,340,353,352,6,7,20,19
 103, 340,341,354,353,7,8,21,20
 104, 341,342,355,354,8,9,22,21
 105, 342,343,356,355,9,10,23,22
 106, 343,344,357,356,10,11,24,23
 107, 344,345,358,357,11,12,25,24
 108, 345,346,359,358,12,13,26,25
*ELSET, ELSET=COH_X, GENERATE
 97, 108, 1
*SOLID SECTION, ELSET=FILM, MATERIAL=BIOFILM
*MATERIAL, NAME=BIOFILM
*USER MATERIAL, CONSTANTS=2
 5000., 0.45
*DEPVAR
 1
*COHESIVE SECTION, ELSET=COH, MATERIAL=COHMAT, RESPONSE=TRACTION SEPARATION
 1.0
*MATERIAL, NAME=COHMAT
*ELASTIC, TYPE=TRACTION
 50000, 50000, 50000
*DAMAGE INITIATION, CRITERION=QUADS
 120, 120, 120
*DAMAGE EVOLUTION, TYPE=ENERGY, MIXED MODE BEHAVIOR=BK, POWER=1.45
 4, 4, 4
*DAMAGE STABILIZATION
 1.0E-4
*NSET, NSET=XSYM
 1,14,27,40,53,66,79,92,105,118,131,144
 157,170,183,196,209,222
*NSET, NSET=YSYM
 1,2,3,4,5,6,7,8,9,10,11,12
 13,14,15,16,17,18,19,20,21,22,23,24
 25,26,27,28,29,30,31,32,33,34,35,36
 37,38,39,40,41,42,43,44,45,46,47,48
 49,50,51,52,53,54,55,56,57,58,59,60
 61,62,63,64,65,66,67,68,69,70,71,72
 73,74,75,76,77,78,79,80,81,82,83,84
 85,86,87,88,89,90,91,92,93,94,95,96
 97,98,99,100,101,102,103,104,105,106,107,108
 109,110,111,112,113,114,115,116,117,118,119,120
 121,122,123,124,125,126,127,128,129,130,131,132
 133,134,135,136,137,138,139,140,141,142,143,144
 145,146,147,148,149,150,151,152,153,154,155,156
 157,158,159,160,161,162,163,164,165,166,167,168
 169,170,171,172,173,174,175,176,177,178,179,180
 181,182,183,184,185,186,187,188,189,190,191,192
 193,194,195,196,197,198,199,200,201,202,203,204
 205,206,207,208,209,210,211,212,213,214,215,216
 217,218,219,220,221,222,223,224,225,226,227,228
 229,230,231,232,233,234,334,335,336,337,338,339
 340,341,342,343,344,345,346,347,348,349,350,351
 352,353,354,355,356,357,358,359
*NSET, NSET=CBOT
 334,335,336,337,338,339,340,341,342,343,344,345
 346,347,348,349,350,351,352,353,354,355,356,357
 358,359
*BOUNDARY
 XSYM, 1, 1
 YSYM, 2, 2
 CBOT, 1, 3
*STEP, NLGEOM=YES, INC=500
 Depth-graded growth on cohesive base -> edge delamination
*STATIC
 0.02, 1.0, 1.0E-5, 0.02
*OUTPUT, FIELD
*NODE OUTPUT
 U
*ELEMENT OUTPUT, POSITION=CENTROID
 S, E, SDV, SDEG, COORD
*OUTPUT, HISTORY, VARIABLE=PRESELECT
*END STEP
