*HEADING
 Biofilm film strip, seeded imperfection -> growth-induced buckling (B1)
*NODE
 1, 0.000000, 0.000000, 0.000000
 2, 0.250000, 0.000000, 0.000000
 3, 0.500000, 0.000000, 0.000000
 4, 0.750000, 0.000000, 0.000000
 5, 1.000000, 0.000000, 0.000000
 6, 1.250000, 0.000000, 0.000000
 7, 1.500000, 0.000000, 0.000000
 8, 1.750000, 0.000000, 0.000000
 9, 2.000000, 0.000000, 0.000000
 10, 2.250000, 0.000000, 0.000000
 11, 2.500000, 0.000000, 0.000000
 12, 2.750000, 0.000000, 0.000000
 13, 3.000000, 0.000000, 0.000000
 14, 3.250000, 0.000000, 0.000000
 15, 3.500000, 0.000000, 0.000000
 16, 3.750000, 0.000000, 0.000000
 17, 4.000000, 0.000000, 0.000000
 18, 0.000000, 1.000000, 0.000000
 19, 0.250000, 1.000000, 0.000000
 20, 0.500000, 1.000000, 0.000000
 21, 0.750000, 1.000000, 0.000000
 22, 1.000000, 1.000000, 0.000000
 23, 1.250000, 1.000000, 0.000000
 24, 1.500000, 1.000000, 0.000000
 25, 1.750000, 1.000000, 0.000000
 26, 2.000000, 1.000000, 0.000000
 27, 2.250000, 1.000000, 0.000000
 28, 2.500000, 1.000000, 0.000000
 29, 2.750000, 1.000000, 0.000000
 30, 3.000000, 1.000000, 0.000000
 31, 3.250000, 1.000000, 0.000000
 32, 3.500000, 1.000000, 0.000000
 33, 3.750000, 1.000000, 0.000000
 34, 4.000000, 1.000000, 0.000000
 35, 0.000000, 0.000000, 0.125000
 36, 0.250000, 0.000000, 0.125122
 37, 0.500000, 0.000000, 0.125239
 38, 0.750000, 0.000000, 0.125347
 39, 1.000000, 0.000000, 0.125442
 40, 1.250000, 0.000000, 0.125520
 41, 1.500000, 0.000000, 0.125577
 42, 1.750000, 0.000000, 0.125613
 43, 2.000000, 0.000000, 0.125625
 44, 2.250000, 0.000000, 0.125613
 45, 2.500000, 0.000000, 0.125577
 46, 2.750000, 0.000000, 0.125520
 47, 3.000000, 0.000000, 0.125442
 48, 3.250000, 0.000000, 0.125347
 49, 3.500000, 0.000000, 0.125239
 50, 3.750000, 0.000000, 0.125122
 51, 4.000000, 0.000000, 0.125000
 52, 0.000000, 1.000000, 0.125000
 53, 0.250000, 1.000000, 0.125122
 54, 0.500000, 1.000000, 0.125239
 55, 0.750000, 1.000000, 0.125347
 56, 1.000000, 1.000000, 0.125442
 57, 1.250000, 1.000000, 0.125520
 58, 1.500000, 1.000000, 0.125577
 59, 1.750000, 1.000000, 0.125613
 60, 2.000000, 1.000000, 0.125625
 61, 2.250000, 1.000000, 0.125613
 62, 2.500000, 1.000000, 0.125577
 63, 2.750000, 1.000000, 0.125520
 64, 3.000000, 1.000000, 0.125442
 65, 3.250000, 1.000000, 0.125347
 66, 3.500000, 1.000000, 0.125239
 67, 3.750000, 1.000000, 0.125122
 68, 4.000000, 1.000000, 0.125000
 69, 0.000000, 0.000000, 0.250000
 70, 0.250000, 0.000000, 0.250244
 71, 0.500000, 0.000000, 0.250478
 72, 0.750000, 0.000000, 0.250694
 73, 1.000000, 0.000000, 0.250884
 74, 1.250000, 0.000000, 0.251039
 75, 1.500000, 0.000000, 0.251155
 76, 1.750000, 0.000000, 0.251226
 77, 2.000000, 0.000000, 0.251250
 78, 2.250000, 0.000000, 0.251226
 79, 2.500000, 0.000000, 0.251155
 80, 2.750000, 0.000000, 0.251039
 81, 3.000000, 0.000000, 0.250884
 82, 3.250000, 0.000000, 0.250694
 83, 3.500000, 0.000000, 0.250478
 84, 3.750000, 0.000000, 0.250244
 85, 4.000000, 0.000000, 0.250000
 86, 0.000000, 1.000000, 0.250000
 87, 0.250000, 1.000000, 0.250244
 88, 0.500000, 1.000000, 0.250478
 89, 0.750000, 1.000000, 0.250694
 90, 1.000000, 1.000000, 0.250884
 91, 1.250000, 1.000000, 0.251039
 92, 1.500000, 1.000000, 0.251155
 93, 1.750000, 1.000000, 0.251226
 94, 2.000000, 1.000000, 0.251250
 95, 2.250000, 1.000000, 0.251226
 96, 2.500000, 1.000000, 0.251155
 97, 2.750000, 1.000000, 0.251039
 98, 3.000000, 1.000000, 0.250884
 99, 3.250000, 1.000000, 0.250694
 100, 3.500000, 1.000000, 0.250478
 101, 3.750000, 1.000000, 0.250244
 102, 4.000000, 1.000000, 0.250000
 103, 0.000000, 0.000000, 0.375000
 104, 0.250000, 0.000000, 0.375366
 105, 0.500000, 0.000000, 0.375718
 106, 0.750000, 0.000000, 0.376042
 107, 1.000000, 0.000000, 0.376326
 108, 1.250000, 0.000000, 0.376559
 109, 1.500000, 0.000000, 0.376732
 110, 1.750000, 0.000000, 0.376839
 111, 2.000000, 0.000000, 0.376875
 112, 2.250000, 0.000000, 0.376839
 113, 2.500000, 0.000000, 0.376732
 114, 2.750000, 0.000000, 0.376559
 115, 3.000000, 0.000000, 0.376326
 116, 3.250000, 0.000000, 0.376042
 117, 3.500000, 0.000000, 0.375718
 118, 3.750000, 0.000000, 0.375366
 119, 4.000000, 0.000000, 0.375000
 120, 0.000000, 1.000000, 0.375000
 121, 0.250000, 1.000000, 0.375366
 122, 0.500000, 1.000000, 0.375718
 123, 0.750000, 1.000000, 0.376042
 124, 1.000000, 1.000000, 0.376326
 125, 1.250000, 1.000000, 0.376559
 126, 1.500000, 1.000000, 0.376732
 127, 1.750000, 1.000000, 0.376839
 128, 2.000000, 1.000000, 0.376875
 129, 2.250000, 1.000000, 0.376839
 130, 2.500000, 1.000000, 0.376732
 131, 2.750000, 1.000000, 0.376559
 132, 3.000000, 1.000000, 0.376326
 133, 3.250000, 1.000000, 0.376042
 134, 3.500000, 1.000000, 0.375718
 135, 3.750000, 1.000000, 0.375366
 136, 4.000000, 1.000000, 0.375000
 137, 0.000000, 0.000000, 0.500000
 138, 0.250000, 0.000000, 0.500488
 139, 0.500000, 0.000000, 0.500957
 140, 0.750000, 0.000000, 0.501389
 141, 1.000000, 0.000000, 0.501768
 142, 1.250000, 0.000000, 0.502079
 143, 1.500000, 0.000000, 0.502310
 144, 1.750000, 0.000000, 0.502452
 145, 2.000000, 0.000000, 0.502500
 146, 2.250000, 0.000000, 0.502452
 147, 2.500000, 0.000000, 0.502310
 148, 2.750000, 0.000000, 0.502079
 149, 3.000000, 0.000000, 0.501768
 150, 3.250000, 0.000000, 0.501389
 151, 3.500000, 0.000000, 0.500957
 152, 3.750000, 0.000000, 0.500488
 153, 4.000000, 0.000000, 0.500000
 154, 0.000000, 1.000000, 0.500000
 155, 0.250000, 1.000000, 0.500488
 156, 0.500000, 1.000000, 0.500957
 157, 0.750000, 1.000000, 0.501389
 158, 1.000000, 1.000000, 0.501768
 159, 1.250000, 1.000000, 0.502079
 160, 1.500000, 1.000000, 0.502310
 161, 1.750000, 1.000000, 0.502452
 162, 2.000000, 1.000000, 0.502500
 163, 2.250000, 1.000000, 0.502452
 164, 2.500000, 1.000000, 0.502310
 165, 2.750000, 1.000000, 0.502079
 166, 3.000000, 1.000000, 0.501768
 167, 3.250000, 1.000000, 0.501389
 168, 3.500000, 1.000000, 0.500957
 169, 3.750000, 1.000000, 0.500488
 170, 4.000000, 1.000000, 0.500000
 171, 0.000000, 0.000000, 0.625000
 172, 0.250000, 0.000000, 0.625610
 173, 0.500000, 0.000000, 0.626196
 174, 0.750000, 0.000000, 0.626736
 175, 1.000000, 0.000000, 0.627210
 176, 1.250000, 0.000000, 0.627598
 177, 1.500000, 0.000000, 0.627887
 178, 1.750000, 0.000000, 0.628065
 179, 2.000000, 0.000000, 0.628125
 180, 2.250000, 0.000000, 0.628065
 181, 2.500000, 0.000000, 0.627887
 182, 2.750000, 0.000000, 0.627598
 183, 3.000000, 0.000000, 0.627210
 184, 3.250000, 0.000000, 0.626736
 185, 3.500000, 0.000000, 0.626196
 186, 3.750000, 0.000000, 0.625610
 187, 4.000000, 0.000000, 0.625000
 188, 0.000000, 1.000000, 0.625000
 189, 0.250000, 1.000000, 0.625610
 190, 0.500000, 1.000000, 0.626196
 191, 0.750000, 1.000000, 0.626736
 192, 1.000000, 1.000000, 0.627210
 193, 1.250000, 1.000000, 0.627598
 194, 1.500000, 1.000000, 0.627887
 195, 1.750000, 1.000000, 0.628065
 196, 2.000000, 1.000000, 0.628125
 197, 2.250000, 1.000000, 0.628065
 198, 2.500000, 1.000000, 0.627887
 199, 2.750000, 1.000000, 0.627598
 200, 3.000000, 1.000000, 0.627210
 201, 3.250000, 1.000000, 0.626736
 202, 3.500000, 1.000000, 0.626196
 203, 3.750000, 1.000000, 0.625610
 204, 4.000000, 1.000000, 0.625000
 205, 0.000000, 0.000000, 0.750000
 206, 0.250000, 0.000000, 0.750732
 207, 0.500000, 0.000000, 0.751435
 208, 0.750000, 0.000000, 0.752083
 209, 1.000000, 0.000000, 0.752652
 210, 1.250000, 0.000000, 0.753118
 211, 1.500000, 0.000000, 0.753465
 212, 1.750000, 0.000000, 0.753678
 213, 2.000000, 0.000000, 0.753750
 214, 2.250000, 0.000000, 0.753678
 215, 2.500000, 0.000000, 0.753465
 216, 2.750000, 0.000000, 0.753118
 217, 3.000000, 0.000000, 0.752652
 218, 3.250000, 0.000000, 0.752083
 219, 3.500000, 0.000000, 0.751435
 220, 3.750000, 0.000000, 0.750732
 221, 4.000000, 0.000000, 0.750000
 222, 0.000000, 1.000000, 0.750000
 223, 0.250000, 1.000000, 0.750732
 224, 0.500000, 1.000000, 0.751435
 225, 0.750000, 1.000000, 0.752083
 226, 1.000000, 1.000000, 0.752652
 227, 1.250000, 1.000000, 0.753118
 228, 1.500000, 1.000000, 0.753465
 229, 1.750000, 1.000000, 0.753678
 230, 2.000000, 1.000000, 0.753750
 231, 2.250000, 1.000000, 0.753678
 232, 2.500000, 1.000000, 0.753465
 233, 2.750000, 1.000000, 0.753118
 234, 3.000000, 1.000000, 0.752652
 235, 3.250000, 1.000000, 0.752083
 236, 3.500000, 1.000000, 0.751435
 237, 3.750000, 1.000000, 0.750732
 238, 4.000000, 1.000000, 0.750000
 239, 0.000000, 0.000000, 0.875000
 240, 0.250000, 0.000000, 0.875854
 241, 0.500000, 0.000000, 0.876674
 242, 0.750000, 0.000000, 0.877431
 243, 1.000000, 0.000000, 0.878094
 244, 1.250000, 0.000000, 0.878638
 245, 1.500000, 0.000000, 0.879042
 246, 1.750000, 0.000000, 0.879291
 247, 2.000000, 0.000000, 0.879375
 248, 2.250000, 0.000000, 0.879291
 249, 2.500000, 0.000000, 0.879042
 250, 2.750000, 0.000000, 0.878638
 251, 3.000000, 0.000000, 0.878094
 252, 3.250000, 0.000000, 0.877431
 253, 3.500000, 0.000000, 0.876674
 254, 3.750000, 0.000000, 0.875854
 255, 4.000000, 0.000000, 0.875000
 256, 0.000000, 1.000000, 0.875000
 257, 0.250000, 1.000000, 0.875854
 258, 0.500000, 1.000000, 0.876674
 259, 0.750000, 1.000000, 0.877431
 260, 1.000000, 1.000000, 0.878094
 261, 1.250000, 1.000000, 0.878638
 262, 1.500000, 1.000000, 0.879042
 263, 1.750000, 1.000000, 0.879291
 264, 2.000000, 1.000000, 0.879375
 265, 2.250000, 1.000000, 0.879291
 266, 2.500000, 1.000000, 0.879042
 267, 2.750000, 1.000000, 0.878638
 268, 3.000000, 1.000000, 0.878094
 269, 3.250000, 1.000000, 0.877431
 270, 3.500000, 1.000000, 0.876674
 271, 3.750000, 1.000000, 0.875854
 272, 4.000000, 1.000000, 0.875000
 273, 0.000000, 0.000000, 1.000000
 274, 0.250000, 0.000000, 1.000975
 275, 0.500000, 0.000000, 1.001913
 276, 0.750000, 0.000000, 1.002778
 277, 1.000000, 0.000000, 1.003536
 278, 1.250000, 0.000000, 1.004157
 279, 1.500000, 0.000000, 1.004619
 280, 1.750000, 0.000000, 1.004904
 281, 2.000000, 0.000000, 1.005000
 282, 2.250000, 0.000000, 1.004904
 283, 2.500000, 0.000000, 1.004619
 284, 2.750000, 0.000000, 1.004157
 285, 3.000000, 0.000000, 1.003536
 286, 3.250000, 0.000000, 1.002778
 287, 3.500000, 0.000000, 1.001913
 288, 3.750000, 0.000000, 1.000975
 289, 4.000000, 0.000000, 1.000000
 290, 0.000000, 1.000000, 1.000000
 291, 0.250000, 1.000000, 1.000975
 292, 0.500000, 1.000000, 1.001913
 293, 0.750000, 1.000000, 1.002778
 294, 1.000000, 1.000000, 1.003536
 295, 1.250000, 1.000000, 1.004157
 296, 1.500000, 1.000000, 1.004619
 297, 1.750000, 1.000000, 1.004904
 298, 2.000000, 1.000000, 1.005000
 299, 2.250000, 1.000000, 1.004904
 300, 2.500000, 1.000000, 1.004619
 301, 2.750000, 1.000000, 1.004157
 302, 3.000000, 1.000000, 1.003536
 303, 3.250000, 1.000000, 1.002778
 304, 3.500000, 1.000000, 1.001913
 305, 3.750000, 1.000000, 1.000975
 306, 4.000000, 1.000000, 1.000000
*ELEMENT, TYPE=C3D8, ELSET=FILM
 1, 1,2,19,18,35,36,53,52
 2, 2,3,20,19,36,37,54,53
 3, 3,4,21,20,37,38,55,54
 4, 4,5,22,21,38,39,56,55
 5, 5,6,23,22,39,40,57,56
 6, 6,7,24,23,40,41,58,57
 7, 7,8,25,24,41,42,59,58
 8, 8,9,26,25,42,43,60,59
 9, 9,10,27,26,43,44,61,60
 10, 10,11,28,27,44,45,62,61
 11, 11,12,29,28,45,46,63,62
 12, 12,13,30,29,46,47,64,63
 13, 13,14,31,30,47,48,65,64
 14, 14,15,32,31,48,49,66,65
 15, 15,16,33,32,49,50,67,66
 16, 16,17,34,33,50,51,68,67
 17, 35,36,53,52,69,70,87,86
 18, 36,37,54,53,70,71,88,87
 19, 37,38,55,54,71,72,89,88
 20, 38,39,56,55,72,73,90,89
 21, 39,40,57,56,73,74,91,90
 22, 40,41,58,57,74,75,92,91
 23, 41,42,59,58,75,76,93,92
 24, 42,43,60,59,76,77,94,93
 25, 43,44,61,60,77,78,95,94
 26, 44,45,62,61,78,79,96,95
 27, 45,46,63,62,79,80,97,96
 28, 46,47,64,63,80,81,98,97
 29, 47,48,65,64,81,82,99,98
 30, 48,49,66,65,82,83,100,99
 31, 49,50,67,66,83,84,101,100
 32, 50,51,68,67,84,85,102,101
 33, 69,70,87,86,103,104,121,120
 34, 70,71,88,87,104,105,122,121
 35, 71,72,89,88,105,106,123,122
 36, 72,73,90,89,106,107,124,123
 37, 73,74,91,90,107,108,125,124
 38, 74,75,92,91,108,109,126,125
 39, 75,76,93,92,109,110,127,126
 40, 76,77,94,93,110,111,128,127
 41, 77,78,95,94,111,112,129,128
 42, 78,79,96,95,112,113,130,129
 43, 79,80,97,96,113,114,131,130
 44, 80,81,98,97,114,115,132,131
 45, 81,82,99,98,115,116,133,132
 46, 82,83,100,99,116,117,134,133
 47, 83,84,101,100,117,118,135,134
 48, 84,85,102,101,118,119,136,135
 49, 103,104,121,120,137,138,155,154
 50, 104,105,122,121,138,139,156,155
 51, 105,106,123,122,139,140,157,156
 52, 106,107,124,123,140,141,158,157
 53, 107,108,125,124,141,142,159,158
 54, 108,109,126,125,142,143,160,159
 55, 109,110,127,126,143,144,161,160
 56, 110,111,128,127,144,145,162,161
 57, 111,112,129,128,145,146,163,162
 58, 112,113,130,129,146,147,164,163
 59, 113,114,131,130,147,148,165,164
 60, 114,115,132,131,148,149,166,165
 61, 115,116,133,132,149,150,167,166
 62, 116,117,134,133,150,151,168,167
 63, 117,118,135,134,151,152,169,168
 64, 118,119,136,135,152,153,170,169
 65, 137,138,155,154,171,172,189,188
 66, 138,139,156,155,172,173,190,189
 67, 139,140,157,156,173,174,191,190
 68, 140,141,158,157,174,175,192,191
 69, 141,142,159,158,175,176,193,192
 70, 142,143,160,159,176,177,194,193
 71, 143,144,161,160,177,178,195,194
 72, 144,145,162,161,178,179,196,195
 73, 145,146,163,162,179,180,197,196
 74, 146,147,164,163,180,181,198,197
 75, 147,148,165,164,181,182,199,198
 76, 148,149,166,165,182,183,200,199
 77, 149,150,167,166,183,184,201,200
 78, 150,151,168,167,184,185,202,201
 79, 151,152,169,168,185,186,203,202
 80, 152,153,170,169,186,187,204,203
 81, 171,172,189,188,205,206,223,222
 82, 172,173,190,189,206,207,224,223
 83, 173,174,191,190,207,208,225,224
 84, 174,175,192,191,208,209,226,225
 85, 175,176,193,192,209,210,227,226
 86, 176,177,194,193,210,211,228,227
 87, 177,178,195,194,211,212,229,228
 88, 178,179,196,195,212,213,230,229
 89, 179,180,197,196,213,214,231,230
 90, 180,181,198,197,214,215,232,231
 91, 181,182,199,198,215,216,233,232
 92, 182,183,200,199,216,217,234,233
 93, 183,184,201,200,217,218,235,234
 94, 184,185,202,201,218,219,236,235
 95, 185,186,203,202,219,220,237,236
 96, 186,187,204,203,220,221,238,237
 97, 205,206,223,222,239,240,257,256
 98, 206,207,224,223,240,241,258,257
 99, 207,208,225,224,241,242,259,258
 100, 208,209,226,225,242,243,260,259
 101, 209,210,227,226,243,244,261,260
 102, 210,211,228,227,244,245,262,261
 103, 211,212,229,228,245,246,263,262
 104, 212,213,230,229,246,247,264,263
 105, 213,214,231,230,247,248,265,264
 106, 214,215,232,231,248,249,266,265
 107, 215,216,233,232,249,250,267,266
 108, 216,217,234,233,250,251,268,267
 109, 217,218,235,234,251,252,269,268
 110, 218,219,236,235,252,253,270,269
 111, 219,220,237,236,253,254,271,270
 112, 220,221,238,237,254,255,272,271
 113, 239,240,257,256,273,274,291,290
 114, 240,241,258,257,274,275,292,291
 115, 241,242,259,258,275,276,293,292
 116, 242,243,260,259,276,277,294,293
 117, 243,244,261,260,277,278,295,294
 118, 244,245,262,261,278,279,296,295
 119, 245,246,263,262,279,280,297,296
 120, 246,247,264,263,280,281,298,297
 121, 247,248,265,264,281,282,299,298
 122, 248,249,266,265,282,283,300,299
 123, 249,250,267,266,283,284,301,300
 124, 250,251,268,267,284,285,302,301
 125, 251,252,269,268,285,286,303,302
 126, 252,253,270,269,286,287,304,303
 127, 253,254,271,270,287,288,305,304
 128, 254,255,272,271,288,289,306,305
*SOLID SECTION, ELSET=FILM, MATERIAL=BIOFILM
*MATERIAL, NAME=BIOFILM
*USER MATERIAL, CONSTANTS=2
 5000., 0.45
*DEPVAR
 1
*NSET, NSET=XSYM
 1,18,35,52,69,86,103,120,137,154,171,188
 205,222,239,256,273,290
*NSET, NSET=YSYM
 1,2,3,4,5,6,7,8,9,10,11,12
 13,14,15,16,17,18,19,20,21,22,23,24
 25,26,27,28,29,30,31,32,33,34,35,36
 37,38,39,40,41,42,43,44,45,46,47,48
 49,50,51,52,53,54,55,56,57,58,59,60
 61,62,63,64,65,66,67,68,69,70,71,72
 73,74,75,76,77,78,79,80,81,82,83,84
 85,86,87,88,89,90,91,92,93,94,95,96
 97,98,99,100,101,102,103,104,105,106,107,108
 109,110,111,112,113,114,115,116,117,118,119,120
 121,122,123,124,125,126,127,128,129,130,131,132
 133,134,135,136,137,138,139,140,141,142,143,144
 145,146,147,148,149,150,151,152,153,154,155,156
 157,158,159,160,161,162,163,164,165,166,167,168
 169,170,171,172,173,174,175,176,177,178,179,180
 181,182,183,184,185,186,187,188,189,190,191,192
 193,194,195,196,197,198,199,200,201,202,203,204
 205,206,207,208,209,210,211,212,213,214,215,216
 217,218,219,220,221,222,223,224,225,226,227,228
 229,230,231,232,233,234,235,236,237,238,239,240
 241,242,243,244,245,246,247,248,249,250,251,252
 253,254,255,256,257,258,259,260,261,262,263,264
 265,266,267,268,269,270,271,272,273,274,275,276
 277,278,279,280,281,282,283,284,285,286,287,288
 289,290,291,292,293,294,295,296,297,298,299,300
 301,302,303,304,305,306
*NSET, NSET=ZBOT
 1,2,3,4,5,6,7,8,9,10,11,12
 13,14,15,16,17,18,19,20,21,22,23,24
 25,26,27,28,29,30,31,32,33,34
*BOUNDARY
 XSYM, 1, 1
 YSYM, 2, 2
 ZBOT, 3, 3
*STEP, NLGEOM=YES, INC=500
 elevated growth, seeded imperfection
*STATIC, STABILIZE=1.0E-4
 0.02, 1.0, 1.0E-6, 0.02
*OUTPUT, FIELD, FREQUENCY=1
*NODE OUTPUT
 U
*ELEMENT OUTPUT, POSITION=CENTROID
 S
*END STEP
