*HEADING
 Biofilm bilayer: stiff growing crust on soft inert base -> wrinkling (A1)
*NODE
 1, 0.000000, 0.000000, 0.000000
 2, 0.166667, 0.000000, 0.000000
 3, 0.333333, 0.000000, 0.000000
 4, 0.500000, 0.000000, 0.000000
 5, 0.666667, 0.000000, 0.000000
 6, 0.833333, 0.000000, 0.000000
 7, 1.000000, 0.000000, 0.000000
 8, 1.166667, 0.000000, 0.000000
 9, 1.333333, 0.000000, 0.000000
 10, 1.500000, 0.000000, 0.000000
 11, 1.666667, 0.000000, 0.000000
 12, 1.833333, 0.000000, 0.000000
 13, 2.000000, 0.000000, 0.000000
 14, 2.166667, 0.000000, 0.000000
 15, 2.333333, 0.000000, 0.000000
 16, 2.500000, 0.000000, 0.000000
 17, 2.666667, 0.000000, 0.000000
 18, 2.833333, 0.000000, 0.000000
 19, 3.000000, 0.000000, 0.000000
 20, 3.166667, 0.000000, 0.000000
 21, 3.333333, 0.000000, 0.000000
 22, 3.500000, 0.000000, 0.000000
 23, 3.666667, 0.000000, 0.000000
 24, 3.833333, 0.000000, 0.000000
 25, 4.000000, 0.000000, 0.000000
 26, 4.166667, 0.000000, 0.000000
 27, 4.333333, 0.000000, 0.000000
 28, 4.500000, 0.000000, 0.000000
 29, 4.666667, 0.000000, 0.000000
 30, 4.833333, 0.000000, 0.000000
 31, 5.000000, 0.000000, 0.000000
 32, 5.166667, 0.000000, 0.000000
 33, 5.333333, 0.000000, 0.000000
 34, 5.500000, 0.000000, 0.000000
 35, 5.666667, 0.000000, 0.000000
 36, 5.833333, 0.000000, 0.000000
 37, 6.000000, 0.000000, 0.000000
 38, 6.166667, 0.000000, 0.000000
 39, 6.333333, 0.000000, 0.000000
 40, 6.500000, 0.000000, 0.000000
 41, 6.666667, 0.000000, 0.000000
 42, 6.833333, 0.000000, 0.000000
 43, 7.000000, 0.000000, 0.000000
 44, 7.166667, 0.000000, 0.000000
 45, 7.333333, 0.000000, 0.000000
 46, 7.500000, 0.000000, 0.000000
 47, 7.666667, 0.000000, 0.000000
 48, 7.833333, 0.000000, 0.000000
 49, 8.000000, 0.000000, 0.000000
 50, 0.000000, 1.000000, 0.000000
 51, 0.166667, 1.000000, 0.000000
 52, 0.333333, 1.000000, 0.000000
 53, 0.500000, 1.000000, 0.000000
 54, 0.666667, 1.000000, 0.000000
 55, 0.833333, 1.000000, 0.000000
 56, 1.000000, 1.000000, 0.000000
 57, 1.166667, 1.000000, 0.000000
 58, 1.333333, 1.000000, 0.000000
 59, 1.500000, 1.000000, 0.000000
 60, 1.666667, 1.000000, 0.000000
 61, 1.833333, 1.000000, 0.000000
 62, 2.000000, 1.000000, 0.000000
 63, 2.166667, 1.000000, 0.000000
 64, 2.333333, 1.000000, 0.000000
 65, 2.500000, 1.000000, 0.000000
 66, 2.666667, 1.000000, 0.000000
 67, 2.833333, 1.000000, 0.000000
 68, 3.000000, 1.000000, 0.000000
 69, 3.166667, 1.000000, 0.000000
 70, 3.333333, 1.000000, 0.000000
 71, 3.500000, 1.000000, 0.000000
 72, 3.666667, 1.000000, 0.000000
 73, 3.833333, 1.000000, 0.000000
 74, 4.000000, 1.000000, 0.000000
 75, 4.166667, 1.000000, 0.000000
 76, 4.333333, 1.000000, 0.000000
 77, 4.500000, 1.000000, 0.000000
 78, 4.666667, 1.000000, 0.000000
 79, 4.833333, 1.000000, 0.000000
 80, 5.000000, 1.000000, 0.000000
 81, 5.166667, 1.000000, 0.000000
 82, 5.333333, 1.000000, 0.000000
 83, 5.500000, 1.000000, 0.000000
 84, 5.666667, 1.000000, 0.000000
 85, 5.833333, 1.000000, 0.000000
 86, 6.000000, 1.000000, 0.000000
 87, 6.166667, 1.000000, 0.000000
 88, 6.333333, 1.000000, 0.000000
 89, 6.500000, 1.000000, 0.000000
 90, 6.666667, 1.000000, 0.000000
 91, 6.833333, 1.000000, 0.000000
 92, 7.000000, 1.000000, 0.000000
 93, 7.166667, 1.000000, 0.000000
 94, 7.333333, 1.000000, 0.000000
 95, 7.500000, 1.000000, 0.000000
 96, 7.666667, 1.000000, 0.000000
 97, 7.833333, 1.000000, 0.000000
 98, 8.000000, 1.000000, 0.000000
 99, 0.000000, 0.000000, 0.125000
 100, 0.166667, 0.000000, 0.125000
 101, 0.333333, 0.000000, 0.125000
 102, 0.500000, 0.000000, 0.125000
 103, 0.666667, 0.000000, 0.125000
 104, 0.833333, 0.000000, 0.125000
 105, 1.000000, 0.000000, 0.125000
 106, 1.166667, 0.000000, 0.125000
 107, 1.333333, 0.000000, 0.125000
 108, 1.500000, 0.000000, 0.125000
 109, 1.666667, 0.000000, 0.125000
 110, 1.833333, 0.000000, 0.125000
 111, 2.000000, 0.000000, 0.125000
 112, 2.166667, 0.000000, 0.125000
 113, 2.333333, 0.000000, 0.125000
 114, 2.500000, 0.000000, 0.125000
 115, 2.666667, 0.000000, 0.125000
 116, 2.833333, 0.000000, 0.125000
 117, 3.000000, 0.000000, 0.125000
 118, 3.166667, 0.000000, 0.125000
 119, 3.333333, 0.000000, 0.125000
 120, 3.500000, 0.000000, 0.125000
 121, 3.666667, 0.000000, 0.125000
 122, 3.833333, 0.000000, 0.125000
 123, 4.000000, 0.000000, 0.125000
 124, 4.166667, 0.000000, 0.125000
 125, 4.333333, 0.000000, 0.125000
 126, 4.500000, 0.000000, 0.125000
 127, 4.666667, 0.000000, 0.125000
 128, 4.833333, 0.000000, 0.125000
 129, 5.000000, 0.000000, 0.125000
 130, 5.166667, 0.000000, 0.125000
 131, 5.333333, 0.000000, 0.125000
 132, 5.500000, 0.000000, 0.125000
 133, 5.666667, 0.000000, 0.125000
 134, 5.833333, 0.000000, 0.125000
 135, 6.000000, 0.000000, 0.125000
 136, 6.166667, 0.000000, 0.125000
 137, 6.333333, 0.000000, 0.125000
 138, 6.500000, 0.000000, 0.125000
 139, 6.666667, 0.000000, 0.125000
 140, 6.833333, 0.000000, 0.125000
 141, 7.000000, 0.000000, 0.125000
 142, 7.166667, 0.000000, 0.125000
 143, 7.333333, 0.000000, 0.125000
 144, 7.500000, 0.000000, 0.125000
 145, 7.666667, 0.000000, 0.125000
 146, 7.833333, 0.000000, 0.125000
 147, 8.000000, 0.000000, 0.125000
 148, 0.000000, 1.000000, 0.125000
 149, 0.166667, 1.000000, 0.125000
 150, 0.333333, 1.000000, 0.125000
 151, 0.500000, 1.000000, 0.125000
 152, 0.666667, 1.000000, 0.125000
 153, 0.833333, 1.000000, 0.125000
 154, 1.000000, 1.000000, 0.125000
 155, 1.166667, 1.000000, 0.125000
 156, 1.333333, 1.000000, 0.125000
 157, 1.500000, 1.000000, 0.125000
 158, 1.666667, 1.000000, 0.125000
 159, 1.833333, 1.000000, 0.125000
 160, 2.000000, 1.000000, 0.125000
 161, 2.166667, 1.000000, 0.125000
 162, 2.333333, 1.000000, 0.125000
 163, 2.500000, 1.000000, 0.125000
 164, 2.666667, 1.000000, 0.125000
 165, 2.833333, 1.000000, 0.125000
 166, 3.000000, 1.000000, 0.125000
 167, 3.166667, 1.000000, 0.125000
 168, 3.333333, 1.000000, 0.125000
 169, 3.500000, 1.000000, 0.125000
 170, 3.666667, 1.000000, 0.125000
 171, 3.833333, 1.000000, 0.125000
 172, 4.000000, 1.000000, 0.125000
 173, 4.166667, 1.000000, 0.125000
 174, 4.333333, 1.000000, 0.125000
 175, 4.500000, 1.000000, 0.125000
 176, 4.666667, 1.000000, 0.125000
 177, 4.833333, 1.000000, 0.125000
 178, 5.000000, 1.000000, 0.125000
 179, 5.166667, 1.000000, 0.125000
 180, 5.333333, 1.000000, 0.125000
 181, 5.500000, 1.000000, 0.125000
 182, 5.666667, 1.000000, 0.125000
 183, 5.833333, 1.000000, 0.125000
 184, 6.000000, 1.000000, 0.125000
 185, 6.166667, 1.000000, 0.125000
 186, 6.333333, 1.000000, 0.125000
 187, 6.500000, 1.000000, 0.125000
 188, 6.666667, 1.000000, 0.125000
 189, 6.833333, 1.000000, 0.125000
 190, 7.000000, 1.000000, 0.125000
 191, 7.166667, 1.000000, 0.125000
 192, 7.333333, 1.000000, 0.125000
 193, 7.500000, 1.000000, 0.125000
 194, 7.666667, 1.000000, 0.125000
 195, 7.833333, 1.000000, 0.125000
 196, 8.000000, 1.000000, 0.125000
 197, 0.000000, 0.000000, 0.250000
 198, 0.166667, 0.000000, 0.250000
 199, 0.333333, 0.000000, 0.250000
 200, 0.500000, 0.000000, 0.250000
 201, 0.666667, 0.000000, 0.250000
 202, 0.833333, 0.000000, 0.250000
 203, 1.000000, 0.000000, 0.250000
 204, 1.166667, 0.000000, 0.250000
 205, 1.333333, 0.000000, 0.250000
 206, 1.500000, 0.000000, 0.250000
 207, 1.666667, 0.000000, 0.250000
 208, 1.833333, 0.000000, 0.250000
 209, 2.000000, 0.000000, 0.250000
 210, 2.166667, 0.000000, 0.250000
 211, 2.333333, 0.000000, 0.250000
 212, 2.500000, 0.000000, 0.250000
 213, 2.666667, 0.000000, 0.250000
 214, 2.833333, 0.000000, 0.250000
 215, 3.000000, 0.000000, 0.250000
 216, 3.166667, 0.000000, 0.250000
 217, 3.333333, 0.000000, 0.250000
 218, 3.500000, 0.000000, 0.250000
 219, 3.666667, 0.000000, 0.250000
 220, 3.833333, 0.000000, 0.250000
 221, 4.000000, 0.000000, 0.250000
 222, 4.166667, 0.000000, 0.250000
 223, 4.333333, 0.000000, 0.250000
 224, 4.500000, 0.000000, 0.250000
 225, 4.666667, 0.000000, 0.250000
 226, 4.833333, 0.000000, 0.250000
 227, 5.000000, 0.000000, 0.250000
 228, 5.166667, 0.000000, 0.250000
 229, 5.333333, 0.000000, 0.250000
 230, 5.500000, 0.000000, 0.250000
 231, 5.666667, 0.000000, 0.250000
 232, 5.833333, 0.000000, 0.250000
 233, 6.000000, 0.000000, 0.250000
 234, 6.166667, 0.000000, 0.250000
 235, 6.333333, 0.000000, 0.250000
 236, 6.500000, 0.000000, 0.250000
 237, 6.666667, 0.000000, 0.250000
 238, 6.833333, 0.000000, 0.250000
 239, 7.000000, 0.000000, 0.250000
 240, 7.166667, 0.000000, 0.250000
 241, 7.333333, 0.000000, 0.250000
 242, 7.500000, 0.000000, 0.250000
 243, 7.666667, 0.000000, 0.250000
 244, 7.833333, 0.000000, 0.250000
 245, 8.000000, 0.000000, 0.250000
 246, 0.000000, 1.000000, 0.250000
 247, 0.166667, 1.000000, 0.250000
 248, 0.333333, 1.000000, 0.250000
 249, 0.500000, 1.000000, 0.250000
 250, 0.666667, 1.000000, 0.250000
 251, 0.833333, 1.000000, 0.250000
 252, 1.000000, 1.000000, 0.250000
 253, 1.166667, 1.000000, 0.250000
 254, 1.333333, 1.000000, 0.250000
 255, 1.500000, 1.000000, 0.250000
 256, 1.666667, 1.000000, 0.250000
 257, 1.833333, 1.000000, 0.250000
 258, 2.000000, 1.000000, 0.250000
 259, 2.166667, 1.000000, 0.250000
 260, 2.333333, 1.000000, 0.250000
 261, 2.500000, 1.000000, 0.250000
 262, 2.666667, 1.000000, 0.250000
 263, 2.833333, 1.000000, 0.250000
 264, 3.000000, 1.000000, 0.250000
 265, 3.166667, 1.000000, 0.250000
 266, 3.333333, 1.000000, 0.250000
 267, 3.500000, 1.000000, 0.250000
 268, 3.666667, 1.000000, 0.250000
 269, 3.833333, 1.000000, 0.250000
 270, 4.000000, 1.000000, 0.250000
 271, 4.166667, 1.000000, 0.250000
 272, 4.333333, 1.000000, 0.250000
 273, 4.500000, 1.000000, 0.250000
 274, 4.666667, 1.000000, 0.250000
 275, 4.833333, 1.000000, 0.250000
 276, 5.000000, 1.000000, 0.250000
 277, 5.166667, 1.000000, 0.250000
 278, 5.333333, 1.000000, 0.250000
 279, 5.500000, 1.000000, 0.250000
 280, 5.666667, 1.000000, 0.250000
 281, 5.833333, 1.000000, 0.250000
 282, 6.000000, 1.000000, 0.250000
 283, 6.166667, 1.000000, 0.250000
 284, 6.333333, 1.000000, 0.250000
 285, 6.500000, 1.000000, 0.250000
 286, 6.666667, 1.000000, 0.250000
 287, 6.833333, 1.000000, 0.250000
 288, 7.000000, 1.000000, 0.250000
 289, 7.166667, 1.000000, 0.250000
 290, 7.333333, 1.000000, 0.250000
 291, 7.500000, 1.000000, 0.250000
 292, 7.666667, 1.000000, 0.250000
 293, 7.833333, 1.000000, 0.250000
 294, 8.000000, 1.000000, 0.250000
 295, 0.000000, 0.000000, 0.375000
 296, 0.166667, 0.000000, 0.375000
 297, 0.333333, 0.000000, 0.375000
 298, 0.500000, 0.000000, 0.375000
 299, 0.666667, 0.000000, 0.375000
 300, 0.833333, 0.000000, 0.375000
 301, 1.000000, 0.000000, 0.375000
 302, 1.166667, 0.000000, 0.375000
 303, 1.333333, 0.000000, 0.375000
 304, 1.500000, 0.000000, 0.375000
 305, 1.666667, 0.000000, 0.375000
 306, 1.833333, 0.000000, 0.375000
 307, 2.000000, 0.000000, 0.375000
 308, 2.166667, 0.000000, 0.375000
 309, 2.333333, 0.000000, 0.375000
 310, 2.500000, 0.000000, 0.375000
 311, 2.666667, 0.000000, 0.375000
 312, 2.833333, 0.000000, 0.375000
 313, 3.000000, 0.000000, 0.375000
 314, 3.166667, 0.000000, 0.375000
 315, 3.333333, 0.000000, 0.375000
 316, 3.500000, 0.000000, 0.375000
 317, 3.666667, 0.000000, 0.375000
 318, 3.833333, 0.000000, 0.375000
 319, 4.000000, 0.000000, 0.375000
 320, 4.166667, 0.000000, 0.375000
 321, 4.333333, 0.000000, 0.375000
 322, 4.500000, 0.000000, 0.375000
 323, 4.666667, 0.000000, 0.375000
 324, 4.833333, 0.000000, 0.375000
 325, 5.000000, 0.000000, 0.375000
 326, 5.166667, 0.000000, 0.375000
 327, 5.333333, 0.000000, 0.375000
 328, 5.500000, 0.000000, 0.375000
 329, 5.666667, 0.000000, 0.375000
 330, 5.833333, 0.000000, 0.375000
 331, 6.000000, 0.000000, 0.375000
 332, 6.166667, 0.000000, 0.375000
 333, 6.333333, 0.000000, 0.375000
 334, 6.500000, 0.000000, 0.375000
 335, 6.666667, 0.000000, 0.375000
 336, 6.833333, 0.000000, 0.375000
 337, 7.000000, 0.000000, 0.375000
 338, 7.166667, 0.000000, 0.375000
 339, 7.333333, 0.000000, 0.375000
 340, 7.500000, 0.000000, 0.375000
 341, 7.666667, 0.000000, 0.375000
 342, 7.833333, 0.000000, 0.375000
 343, 8.000000, 0.000000, 0.375000
 344, 0.000000, 1.000000, 0.375000
 345, 0.166667, 1.000000, 0.375000
 346, 0.333333, 1.000000, 0.375000
 347, 0.500000, 1.000000, 0.375000
 348, 0.666667, 1.000000, 0.375000
 349, 0.833333, 1.000000, 0.375000
 350, 1.000000, 1.000000, 0.375000
 351, 1.166667, 1.000000, 0.375000
 352, 1.333333, 1.000000, 0.375000
 353, 1.500000, 1.000000, 0.375000
 354, 1.666667, 1.000000, 0.375000
 355, 1.833333, 1.000000, 0.375000
 356, 2.000000, 1.000000, 0.375000
 357, 2.166667, 1.000000, 0.375000
 358, 2.333333, 1.000000, 0.375000
 359, 2.500000, 1.000000, 0.375000
 360, 2.666667, 1.000000, 0.375000
 361, 2.833333, 1.000000, 0.375000
 362, 3.000000, 1.000000, 0.375000
 363, 3.166667, 1.000000, 0.375000
 364, 3.333333, 1.000000, 0.375000
 365, 3.500000, 1.000000, 0.375000
 366, 3.666667, 1.000000, 0.375000
 367, 3.833333, 1.000000, 0.375000
 368, 4.000000, 1.000000, 0.375000
 369, 4.166667, 1.000000, 0.375000
 370, 4.333333, 1.000000, 0.375000
 371, 4.500000, 1.000000, 0.375000
 372, 4.666667, 1.000000, 0.375000
 373, 4.833333, 1.000000, 0.375000
 374, 5.000000, 1.000000, 0.375000
 375, 5.166667, 1.000000, 0.375000
 376, 5.333333, 1.000000, 0.375000
 377, 5.500000, 1.000000, 0.375000
 378, 5.666667, 1.000000, 0.375000
 379, 5.833333, 1.000000, 0.375000
 380, 6.000000, 1.000000, 0.375000
 381, 6.166667, 1.000000, 0.375000
 382, 6.333333, 1.000000, 0.375000
 383, 6.500000, 1.000000, 0.375000
 384, 6.666667, 1.000000, 0.375000
 385, 6.833333, 1.000000, 0.375000
 386, 7.000000, 1.000000, 0.375000
 387, 7.166667, 1.000000, 0.375000
 388, 7.333333, 1.000000, 0.375000
 389, 7.500000, 1.000000, 0.375000
 390, 7.666667, 1.000000, 0.375000
 391, 7.833333, 1.000000, 0.375000
 392, 8.000000, 1.000000, 0.375000
 393, 0.000000, 0.000000, 0.500000
 394, 0.166667, 0.000000, 0.500000
 395, 0.333333, 0.000000, 0.500000
 396, 0.500000, 0.000000, 0.500000
 397, 0.666667, 0.000000, 0.500000
 398, 0.833333, 0.000000, 0.500000
 399, 1.000000, 0.000000, 0.500000
 400, 1.166667, 0.000000, 0.500000
 401, 1.333333, 0.000000, 0.500000
 402, 1.500000, 0.000000, 0.500000
 403, 1.666667, 0.000000, 0.500000
 404, 1.833333, 0.000000, 0.500000
 405, 2.000000, 0.000000, 0.500000
 406, 2.166667, 0.000000, 0.500000
 407, 2.333333, 0.000000, 0.500000
 408, 2.500000, 0.000000, 0.500000
 409, 2.666667, 0.000000, 0.500000
 410, 2.833333, 0.000000, 0.500000
 411, 3.000000, 0.000000, 0.500000
 412, 3.166667, 0.000000, 0.500000
 413, 3.333333, 0.000000, 0.500000
 414, 3.500000, 0.000000, 0.500000
 415, 3.666667, 0.000000, 0.500000
 416, 3.833333, 0.000000, 0.500000
 417, 4.000000, 0.000000, 0.500000
 418, 4.166667, 0.000000, 0.500000
 419, 4.333333, 0.000000, 0.500000
 420, 4.500000, 0.000000, 0.500000
 421, 4.666667, 0.000000, 0.500000
 422, 4.833333, 0.000000, 0.500000
 423, 5.000000, 0.000000, 0.500000
 424, 5.166667, 0.000000, 0.500000
 425, 5.333333, 0.000000, 0.500000
 426, 5.500000, 0.000000, 0.500000
 427, 5.666667, 0.000000, 0.500000
 428, 5.833333, 0.000000, 0.500000
 429, 6.000000, 0.000000, 0.500000
 430, 6.166667, 0.000000, 0.500000
 431, 6.333333, 0.000000, 0.500000
 432, 6.500000, 0.000000, 0.500000
 433, 6.666667, 0.000000, 0.500000
 434, 6.833333, 0.000000, 0.500000
 435, 7.000000, 0.000000, 0.500000
 436, 7.166667, 0.000000, 0.500000
 437, 7.333333, 0.000000, 0.500000
 438, 7.500000, 0.000000, 0.500000
 439, 7.666667, 0.000000, 0.500000
 440, 7.833333, 0.000000, 0.500000
 441, 8.000000, 0.000000, 0.500000
 442, 0.000000, 1.000000, 0.500000
 443, 0.166667, 1.000000, 0.500000
 444, 0.333333, 1.000000, 0.500000
 445, 0.500000, 1.000000, 0.500000
 446, 0.666667, 1.000000, 0.500000
 447, 0.833333, 1.000000, 0.500000
 448, 1.000000, 1.000000, 0.500000
 449, 1.166667, 1.000000, 0.500000
 450, 1.333333, 1.000000, 0.500000
 451, 1.500000, 1.000000, 0.500000
 452, 1.666667, 1.000000, 0.500000
 453, 1.833333, 1.000000, 0.500000
 454, 2.000000, 1.000000, 0.500000
 455, 2.166667, 1.000000, 0.500000
 456, 2.333333, 1.000000, 0.500000
 457, 2.500000, 1.000000, 0.500000
 458, 2.666667, 1.000000, 0.500000
 459, 2.833333, 1.000000, 0.500000
 460, 3.000000, 1.000000, 0.500000
 461, 3.166667, 1.000000, 0.500000
 462, 3.333333, 1.000000, 0.500000
 463, 3.500000, 1.000000, 0.500000
 464, 3.666667, 1.000000, 0.500000
 465, 3.833333, 1.000000, 0.500000
 466, 4.000000, 1.000000, 0.500000
 467, 4.166667, 1.000000, 0.500000
 468, 4.333333, 1.000000, 0.500000
 469, 4.500000, 1.000000, 0.500000
 470, 4.666667, 1.000000, 0.500000
 471, 4.833333, 1.000000, 0.500000
 472, 5.000000, 1.000000, 0.500000
 473, 5.166667, 1.000000, 0.500000
 474, 5.333333, 1.000000, 0.500000
 475, 5.500000, 1.000000, 0.500000
 476, 5.666667, 1.000000, 0.500000
 477, 5.833333, 1.000000, 0.500000
 478, 6.000000, 1.000000, 0.500000
 479, 6.166667, 1.000000, 0.500000
 480, 6.333333, 1.000000, 0.500000
 481, 6.500000, 1.000000, 0.500000
 482, 6.666667, 1.000000, 0.500000
 483, 6.833333, 1.000000, 0.500000
 484, 7.000000, 1.000000, 0.500000
 485, 7.166667, 1.000000, 0.500000
 486, 7.333333, 1.000000, 0.500000
 487, 7.500000, 1.000000, 0.500000
 488, 7.666667, 1.000000, 0.500000
 489, 7.833333, 1.000000, 0.500000
 490, 8.000000, 1.000000, 0.500000
 491, 0.000000, 0.000000, 0.625000
 492, 0.166667, 0.000000, 0.625000
 493, 0.333333, 0.000000, 0.625000
 494, 0.500000, 0.000000, 0.625000
 495, 0.666667, 0.000000, 0.625000
 496, 0.833333, 0.000000, 0.625000
 497, 1.000000, 0.000000, 0.625000
 498, 1.166667, 0.000000, 0.625000
 499, 1.333333, 0.000000, 0.625000
 500, 1.500000, 0.000000, 0.625000
 501, 1.666667, 0.000000, 0.625000
 502, 1.833333, 0.000000, 0.625000
 503, 2.000000, 0.000000, 0.625000
 504, 2.166667, 0.000000, 0.625000
 505, 2.333333, 0.000000, 0.625000
 506, 2.500000, 0.000000, 0.625000
 507, 2.666667, 0.000000, 0.625000
 508, 2.833333, 0.000000, 0.625000
 509, 3.000000, 0.000000, 0.625000
 510, 3.166667, 0.000000, 0.625000
 511, 3.333333, 0.000000, 0.625000
 512, 3.500000, 0.000000, 0.625000
 513, 3.666667, 0.000000, 0.625000
 514, 3.833333, 0.000000, 0.625000
 515, 4.000000, 0.000000, 0.625000
 516, 4.166667, 0.000000, 0.625000
 517, 4.333333, 0.000000, 0.625000
 518, 4.500000, 0.000000, 0.625000
 519, 4.666667, 0.000000, 0.625000
 520, 4.833333, 0.000000, 0.625000
 521, 5.000000, 0.000000, 0.625000
 522, 5.166667, 0.000000, 0.625000
 523, 5.333333, 0.000000, 0.625000
 524, 5.500000, 0.000000, 0.625000
 525, 5.666667, 0.000000, 0.625000
 526, 5.833333, 0.000000, 0.625000
 527, 6.000000, 0.000000, 0.625000
 528, 6.166667, 0.000000, 0.625000
 529, 6.333333, 0.000000, 0.625000
 530, 6.500000, 0.000000, 0.625000
 531, 6.666667, 0.000000, 0.625000
 532, 6.833333, 0.000000, 0.625000
 533, 7.000000, 0.000000, 0.625000
 534, 7.166667, 0.000000, 0.625000
 535, 7.333333, 0.000000, 0.625000
 536, 7.500000, 0.000000, 0.625000
 537, 7.666667, 0.000000, 0.625000
 538, 7.833333, 0.000000, 0.625000
 539, 8.000000, 0.000000, 0.625000
 540, 0.000000, 1.000000, 0.625000
 541, 0.166667, 1.000000, 0.625000
 542, 0.333333, 1.000000, 0.625000
 543, 0.500000, 1.000000, 0.625000
 544, 0.666667, 1.000000, 0.625000
 545, 0.833333, 1.000000, 0.625000
 546, 1.000000, 1.000000, 0.625000
 547, 1.166667, 1.000000, 0.625000
 548, 1.333333, 1.000000, 0.625000
 549, 1.500000, 1.000000, 0.625000
 550, 1.666667, 1.000000, 0.625000
 551, 1.833333, 1.000000, 0.625000
 552, 2.000000, 1.000000, 0.625000
 553, 2.166667, 1.000000, 0.625000
 554, 2.333333, 1.000000, 0.625000
 555, 2.500000, 1.000000, 0.625000
 556, 2.666667, 1.000000, 0.625000
 557, 2.833333, 1.000000, 0.625000
 558, 3.000000, 1.000000, 0.625000
 559, 3.166667, 1.000000, 0.625000
 560, 3.333333, 1.000000, 0.625000
 561, 3.500000, 1.000000, 0.625000
 562, 3.666667, 1.000000, 0.625000
 563, 3.833333, 1.000000, 0.625000
 564, 4.000000, 1.000000, 0.625000
 565, 4.166667, 1.000000, 0.625000
 566, 4.333333, 1.000000, 0.625000
 567, 4.500000, 1.000000, 0.625000
 568, 4.666667, 1.000000, 0.625000
 569, 4.833333, 1.000000, 0.625000
 570, 5.000000, 1.000000, 0.625000
 571, 5.166667, 1.000000, 0.625000
 572, 5.333333, 1.000000, 0.625000
 573, 5.500000, 1.000000, 0.625000
 574, 5.666667, 1.000000, 0.625000
 575, 5.833333, 1.000000, 0.625000
 576, 6.000000, 1.000000, 0.625000
 577, 6.166667, 1.000000, 0.625000
 578, 6.333333, 1.000000, 0.625000
 579, 6.500000, 1.000000, 0.625000
 580, 6.666667, 1.000000, 0.625000
 581, 6.833333, 1.000000, 0.625000
 582, 7.000000, 1.000000, 0.625000
 583, 7.166667, 1.000000, 0.625000
 584, 7.333333, 1.000000, 0.625000
 585, 7.500000, 1.000000, 0.625000
 586, 7.666667, 1.000000, 0.625000
 587, 7.833333, 1.000000, 0.625000
 588, 8.000000, 1.000000, 0.625000
 589, 0.000000, 0.000000, 0.750000
 590, 0.166667, 0.000000, 0.750000
 591, 0.333333, 0.000000, 0.750000
 592, 0.500000, 0.000000, 0.750000
 593, 0.666667, 0.000000, 0.750000
 594, 0.833333, 0.000000, 0.750000
 595, 1.000000, 0.000000, 0.750000
 596, 1.166667, 0.000000, 0.750000
 597, 1.333333, 0.000000, 0.750000
 598, 1.500000, 0.000000, 0.750000
 599, 1.666667, 0.000000, 0.750000
 600, 1.833333, 0.000000, 0.750000
 601, 2.000000, 0.000000, 0.750000
 602, 2.166667, 0.000000, 0.750000
 603, 2.333333, 0.000000, 0.750000
 604, 2.500000, 0.000000, 0.750000
 605, 2.666667, 0.000000, 0.750000
 606, 2.833333, 0.000000, 0.750000
 607, 3.000000, 0.000000, 0.750000
 608, 3.166667, 0.000000, 0.750000
 609, 3.333333, 0.000000, 0.750000
 610, 3.500000, 0.000000, 0.750000
 611, 3.666667, 0.000000, 0.750000
 612, 3.833333, 0.000000, 0.750000
 613, 4.000000, 0.000000, 0.750000
 614, 4.166667, 0.000000, 0.750000
 615, 4.333333, 0.000000, 0.750000
 616, 4.500000, 0.000000, 0.750000
 617, 4.666667, 0.000000, 0.750000
 618, 4.833333, 0.000000, 0.750000
 619, 5.000000, 0.000000, 0.750000
 620, 5.166667, 0.000000, 0.750000
 621, 5.333333, 0.000000, 0.750000
 622, 5.500000, 0.000000, 0.750000
 623, 5.666667, 0.000000, 0.750000
 624, 5.833333, 0.000000, 0.750000
 625, 6.000000, 0.000000, 0.750000
 626, 6.166667, 0.000000, 0.750000
 627, 6.333333, 0.000000, 0.750000
 628, 6.500000, 0.000000, 0.750000
 629, 6.666667, 0.000000, 0.750000
 630, 6.833333, 0.000000, 0.750000
 631, 7.000000, 0.000000, 0.750000
 632, 7.166667, 0.000000, 0.750000
 633, 7.333333, 0.000000, 0.750000
 634, 7.500000, 0.000000, 0.750000
 635, 7.666667, 0.000000, 0.750000
 636, 7.833333, 0.000000, 0.750000
 637, 8.000000, 0.000000, 0.750000
 638, 0.000000, 1.000000, 0.750000
 639, 0.166667, 1.000000, 0.750000
 640, 0.333333, 1.000000, 0.750000
 641, 0.500000, 1.000000, 0.750000
 642, 0.666667, 1.000000, 0.750000
 643, 0.833333, 1.000000, 0.750000
 644, 1.000000, 1.000000, 0.750000
 645, 1.166667, 1.000000, 0.750000
 646, 1.333333, 1.000000, 0.750000
 647, 1.500000, 1.000000, 0.750000
 648, 1.666667, 1.000000, 0.750000
 649, 1.833333, 1.000000, 0.750000
 650, 2.000000, 1.000000, 0.750000
 651, 2.166667, 1.000000, 0.750000
 652, 2.333333, 1.000000, 0.750000
 653, 2.500000, 1.000000, 0.750000
 654, 2.666667, 1.000000, 0.750000
 655, 2.833333, 1.000000, 0.750000
 656, 3.000000, 1.000000, 0.750000
 657, 3.166667, 1.000000, 0.750000
 658, 3.333333, 1.000000, 0.750000
 659, 3.500000, 1.000000, 0.750000
 660, 3.666667, 1.000000, 0.750000
 661, 3.833333, 1.000000, 0.750000
 662, 4.000000, 1.000000, 0.750000
 663, 4.166667, 1.000000, 0.750000
 664, 4.333333, 1.000000, 0.750000
 665, 4.500000, 1.000000, 0.750000
 666, 4.666667, 1.000000, 0.750000
 667, 4.833333, 1.000000, 0.750000
 668, 5.000000, 1.000000, 0.750000
 669, 5.166667, 1.000000, 0.750000
 670, 5.333333, 1.000000, 0.750000
 671, 5.500000, 1.000000, 0.750000
 672, 5.666667, 1.000000, 0.750000
 673, 5.833333, 1.000000, 0.750000
 674, 6.000000, 1.000000, 0.750000
 675, 6.166667, 1.000000, 0.750000
 676, 6.333333, 1.000000, 0.750000
 677, 6.500000, 1.000000, 0.750000
 678, 6.666667, 1.000000, 0.750000
 679, 6.833333, 1.000000, 0.750000
 680, 7.000000, 1.000000, 0.750000
 681, 7.166667, 1.000000, 0.750000
 682, 7.333333, 1.000000, 0.750000
 683, 7.500000, 1.000000, 0.750000
 684, 7.666667, 1.000000, 0.750000
 685, 7.833333, 1.000000, 0.750000
 686, 8.000000, 1.000000, 0.750000
 687, 0.000000, 0.000000, 0.875000
 688, 0.166667, 0.000000, 0.875000
 689, 0.333333, 0.000000, 0.875000
 690, 0.500000, 0.000000, 0.875000
 691, 0.666667, 0.000000, 0.875000
 692, 0.833333, 0.000000, 0.875000
 693, 1.000000, 0.000000, 0.875000
 694, 1.166667, 0.000000, 0.875000
 695, 1.333333, 0.000000, 0.875000
 696, 1.500000, 0.000000, 0.875000
 697, 1.666667, 0.000000, 0.875000
 698, 1.833333, 0.000000, 0.875000
 699, 2.000000, 0.000000, 0.875000
 700, 2.166667, 0.000000, 0.875000
 701, 2.333333, 0.000000, 0.875000
 702, 2.500000, 0.000000, 0.875000
 703, 2.666667, 0.000000, 0.875000
 704, 2.833333, 0.000000, 0.875000
 705, 3.000000, 0.000000, 0.875000
 706, 3.166667, 0.000000, 0.875000
 707, 3.333333, 0.000000, 0.875000
 708, 3.500000, 0.000000, 0.875000
 709, 3.666667, 0.000000, 0.875000
 710, 3.833333, 0.000000, 0.875000
 711, 4.000000, 0.000000, 0.875000
 712, 4.166667, 0.000000, 0.875000
 713, 4.333333, 0.000000, 0.875000
 714, 4.500000, 0.000000, 0.875000
 715, 4.666667, 0.000000, 0.875000
 716, 4.833333, 0.000000, 0.875000
 717, 5.000000, 0.000000, 0.875000
 718, 5.166667, 0.000000, 0.875000
 719, 5.333333, 0.000000, 0.875000
 720, 5.500000, 0.000000, 0.875000
 721, 5.666667, 0.000000, 0.875000
 722, 5.833333, 0.000000, 0.875000
 723, 6.000000, 0.000000, 0.875000
 724, 6.166667, 0.000000, 0.875000
 725, 6.333333, 0.000000, 0.875000
 726, 6.500000, 0.000000, 0.875000
 727, 6.666667, 0.000000, 0.875000
 728, 6.833333, 0.000000, 0.875000
 729, 7.000000, 0.000000, 0.875000
 730, 7.166667, 0.000000, 0.875000
 731, 7.333333, 0.000000, 0.875000
 732, 7.500000, 0.000000, 0.875000
 733, 7.666667, 0.000000, 0.875000
 734, 7.833333, 0.000000, 0.875000
 735, 8.000000, 0.000000, 0.875000
 736, 0.000000, 1.000000, 0.875000
 737, 0.166667, 1.000000, 0.875000
 738, 0.333333, 1.000000, 0.875000
 739, 0.500000, 1.000000, 0.875000
 740, 0.666667, 1.000000, 0.875000
 741, 0.833333, 1.000000, 0.875000
 742, 1.000000, 1.000000, 0.875000
 743, 1.166667, 1.000000, 0.875000
 744, 1.333333, 1.000000, 0.875000
 745, 1.500000, 1.000000, 0.875000
 746, 1.666667, 1.000000, 0.875000
 747, 1.833333, 1.000000, 0.875000
 748, 2.000000, 1.000000, 0.875000
 749, 2.166667, 1.000000, 0.875000
 750, 2.333333, 1.000000, 0.875000
 751, 2.500000, 1.000000, 0.875000
 752, 2.666667, 1.000000, 0.875000
 753, 2.833333, 1.000000, 0.875000
 754, 3.000000, 1.000000, 0.875000
 755, 3.166667, 1.000000, 0.875000
 756, 3.333333, 1.000000, 0.875000
 757, 3.500000, 1.000000, 0.875000
 758, 3.666667, 1.000000, 0.875000
 759, 3.833333, 1.000000, 0.875000
 760, 4.000000, 1.000000, 0.875000
 761, 4.166667, 1.000000, 0.875000
 762, 4.333333, 1.000000, 0.875000
 763, 4.500000, 1.000000, 0.875000
 764, 4.666667, 1.000000, 0.875000
 765, 4.833333, 1.000000, 0.875000
 766, 5.000000, 1.000000, 0.875000
 767, 5.166667, 1.000000, 0.875000
 768, 5.333333, 1.000000, 0.875000
 769, 5.500000, 1.000000, 0.875000
 770, 5.666667, 1.000000, 0.875000
 771, 5.833333, 1.000000, 0.875000
 772, 6.000000, 1.000000, 0.875000
 773, 6.166667, 1.000000, 0.875000
 774, 6.333333, 1.000000, 0.875000
 775, 6.500000, 1.000000, 0.875000
 776, 6.666667, 1.000000, 0.875000
 777, 6.833333, 1.000000, 0.875000
 778, 7.000000, 1.000000, 0.875000
 779, 7.166667, 1.000000, 0.875000
 780, 7.333333, 1.000000, 0.875000
 781, 7.500000, 1.000000, 0.875000
 782, 7.666667, 1.000000, 0.875000
 783, 7.833333, 1.000000, 0.875000
 784, 8.000000, 1.000000, 0.875000
 785, 0.000000, 0.000000, 1.000000
 786, 0.166667, 0.000000, 1.000765
 787, 0.333333, 0.000000, 1.001414
 788, 0.500000, 0.000000, 1.001848
 789, 0.666667, 0.000000, 1.002000
 790, 0.833333, 0.000000, 1.001848
 791, 1.000000, 0.000000, 1.001414
 792, 1.166667, 0.000000, 1.000765
 793, 1.333333, 0.000000, 1.000000
 794, 1.500000, 0.000000, 0.999235
 795, 1.666667, 0.000000, 0.998586
 796, 1.833333, 0.000000, 0.998152
 797, 2.000000, 0.000000, 0.998000
 798, 2.166667, 0.000000, 0.998152
 799, 2.333333, 0.000000, 0.998586
 800, 2.500000, 0.000000, 0.999235
 801, 2.666667, 0.000000, 1.000000
 802, 2.833333, 0.000000, 1.000765
 803, 3.000000, 0.000000, 1.001414
 804, 3.166667, 0.000000, 1.001848
 805, 3.333333, 0.000000, 1.002000
 806, 3.500000, 0.000000, 1.001848
 807, 3.666667, 0.000000, 1.001414
 808, 3.833333, 0.000000, 1.000765
 809, 4.000000, 0.000000, 1.000000
 810, 4.166667, 0.000000, 0.999235
 811, 4.333333, 0.000000, 0.998586
 812, 4.500000, 0.000000, 0.998152
 813, 4.666667, 0.000000, 0.998000
 814, 4.833333, 0.000000, 0.998152
 815, 5.000000, 0.000000, 0.998586
 816, 5.166667, 0.000000, 0.999235
 817, 5.333333, 0.000000, 1.000000
 818, 5.500000, 0.000000, 1.000765
 819, 5.666667, 0.000000, 1.001414
 820, 5.833333, 0.000000, 1.001848
 821, 6.000000, 0.000000, 1.002000
 822, 6.166667, 0.000000, 1.001848
 823, 6.333333, 0.000000, 1.001414
 824, 6.500000, 0.000000, 1.000765
 825, 6.666667, 0.000000, 1.000000
 826, 6.833333, 0.000000, 0.999235
 827, 7.000000, 0.000000, 0.998586
 828, 7.166667, 0.000000, 0.998152
 829, 7.333333, 0.000000, 0.998000
 830, 7.500000, 0.000000, 0.998152
 831, 7.666667, 0.000000, 0.998586
 832, 7.833333, 0.000000, 0.999235
 833, 8.000000, 0.000000, 1.000000
 834, 0.000000, 1.000000, 1.000000
 835, 0.166667, 1.000000, 1.000765
 836, 0.333333, 1.000000, 1.001414
 837, 0.500000, 1.000000, 1.001848
 838, 0.666667, 1.000000, 1.002000
 839, 0.833333, 1.000000, 1.001848
 840, 1.000000, 1.000000, 1.001414
 841, 1.166667, 1.000000, 1.000765
 842, 1.333333, 1.000000, 1.000000
 843, 1.500000, 1.000000, 0.999235
 844, 1.666667, 1.000000, 0.998586
 845, 1.833333, 1.000000, 0.998152
 846, 2.000000, 1.000000, 0.998000
 847, 2.166667, 1.000000, 0.998152
 848, 2.333333, 1.000000, 0.998586
 849, 2.500000, 1.000000, 0.999235
 850, 2.666667, 1.000000, 1.000000
 851, 2.833333, 1.000000, 1.000765
 852, 3.000000, 1.000000, 1.001414
 853, 3.166667, 1.000000, 1.001848
 854, 3.333333, 1.000000, 1.002000
 855, 3.500000, 1.000000, 1.001848
 856, 3.666667, 1.000000, 1.001414
 857, 3.833333, 1.000000, 1.000765
 858, 4.000000, 1.000000, 1.000000
 859, 4.166667, 1.000000, 0.999235
 860, 4.333333, 1.000000, 0.998586
 861, 4.500000, 1.000000, 0.998152
 862, 4.666667, 1.000000, 0.998000
 863, 4.833333, 1.000000, 0.998152
 864, 5.000000, 1.000000, 0.998586
 865, 5.166667, 1.000000, 0.999235
 866, 5.333333, 1.000000, 1.000000
 867, 5.500000, 1.000000, 1.000765
 868, 5.666667, 1.000000, 1.001414
 869, 5.833333, 1.000000, 1.001848
 870, 6.000000, 1.000000, 1.002000
 871, 6.166667, 1.000000, 1.001848
 872, 6.333333, 1.000000, 1.001414
 873, 6.500000, 1.000000, 1.000765
 874, 6.666667, 1.000000, 1.000000
 875, 6.833333, 1.000000, 0.999235
 876, 7.000000, 1.000000, 0.998586
 877, 7.166667, 1.000000, 0.998152
 878, 7.333333, 1.000000, 0.998000
 879, 7.500000, 1.000000, 0.998152
 880, 7.666667, 1.000000, 0.998586
 881, 7.833333, 1.000000, 0.999235
 882, 8.000000, 1.000000, 1.000000
*ELEMENT, TYPE=C3D8, ELSET=ALLEL
 1, 1,2,51,50,99,100,149,148
 2, 2,3,52,51,100,101,150,149
 3, 3,4,53,52,101,102,151,150
 4, 4,5,54,53,102,103,152,151
 5, 5,6,55,54,103,104,153,152
 6, 6,7,56,55,104,105,154,153
 7, 7,8,57,56,105,106,155,154
 8, 8,9,58,57,106,107,156,155
 9, 9,10,59,58,107,108,157,156
 10, 10,11,60,59,108,109,158,157
 11, 11,12,61,60,109,110,159,158
 12, 12,13,62,61,110,111,160,159
 13, 13,14,63,62,111,112,161,160
 14, 14,15,64,63,112,113,162,161
 15, 15,16,65,64,113,114,163,162
 16, 16,17,66,65,114,115,164,163
 17, 17,18,67,66,115,116,165,164
 18, 18,19,68,67,116,117,166,165
 19, 19,20,69,68,117,118,167,166
 20, 20,21,70,69,118,119,168,167
 21, 21,22,71,70,119,120,169,168
 22, 22,23,72,71,120,121,170,169
 23, 23,24,73,72,121,122,171,170
 24, 24,25,74,73,122,123,172,171
 25, 25,26,75,74,123,124,173,172
 26, 26,27,76,75,124,125,174,173
 27, 27,28,77,76,125,126,175,174
 28, 28,29,78,77,126,127,176,175
 29, 29,30,79,78,127,128,177,176
 30, 30,31,80,79,128,129,178,177
 31, 31,32,81,80,129,130,179,178
 32, 32,33,82,81,130,131,180,179
 33, 33,34,83,82,131,132,181,180
 34, 34,35,84,83,132,133,182,181
 35, 35,36,85,84,133,134,183,182
 36, 36,37,86,85,134,135,184,183
 37, 37,38,87,86,135,136,185,184
 38, 38,39,88,87,136,137,186,185
 39, 39,40,89,88,137,138,187,186
 40, 40,41,90,89,138,139,188,187
 41, 41,42,91,90,139,140,189,188
 42, 42,43,92,91,140,141,190,189
 43, 43,44,93,92,141,142,191,190
 44, 44,45,94,93,142,143,192,191
 45, 45,46,95,94,143,144,193,192
 46, 46,47,96,95,144,145,194,193
 47, 47,48,97,96,145,146,195,194
 48, 48,49,98,97,146,147,196,195
 49, 99,100,149,148,197,198,247,246
 50, 100,101,150,149,198,199,248,247
 51, 101,102,151,150,199,200,249,248
 52, 102,103,152,151,200,201,250,249
 53, 103,104,153,152,201,202,251,250
 54, 104,105,154,153,202,203,252,251
 55, 105,106,155,154,203,204,253,252
 56, 106,107,156,155,204,205,254,253
 57, 107,108,157,156,205,206,255,254
 58, 108,109,158,157,206,207,256,255
 59, 109,110,159,158,207,208,257,256
 60, 110,111,160,159,208,209,258,257
 61, 111,112,161,160,209,210,259,258
 62, 112,113,162,161,210,211,260,259
 63, 113,114,163,162,211,212,261,260
 64, 114,115,164,163,212,213,262,261
 65, 115,116,165,164,213,214,263,262
 66, 116,117,166,165,214,215,264,263
 67, 117,118,167,166,215,216,265,264
 68, 118,119,168,167,216,217,266,265
 69, 119,120,169,168,217,218,267,266
 70, 120,121,170,169,218,219,268,267
 71, 121,122,171,170,219,220,269,268
 72, 122,123,172,171,220,221,270,269
 73, 123,124,173,172,221,222,271,270
 74, 124,125,174,173,222,223,272,271
 75, 125,126,175,174,223,224,273,272
 76, 126,127,176,175,224,225,274,273
 77, 127,128,177,176,225,226,275,274
 78, 128,129,178,177,226,227,276,275
 79, 129,130,179,178,227,228,277,276
 80, 130,131,180,179,228,229,278,277
 81, 131,132,181,180,229,230,279,278
 82, 132,133,182,181,230,231,280,279
 83, 133,134,183,182,231,232,281,280
 84, 134,135,184,183,232,233,282,281
 85, 135,136,185,184,233,234,283,282
 86, 136,137,186,185,234,235,284,283
 87, 137,138,187,186,235,236,285,284
 88, 138,139,188,187,236,237,286,285
 89, 139,140,189,188,237,238,287,286
 90, 140,141,190,189,238,239,288,287
 91, 141,142,191,190,239,240,289,288
 92, 142,143,192,191,240,241,290,289
 93, 143,144,193,192,241,242,291,290
 94, 144,145,194,193,242,243,292,291
 95, 145,146,195,194,243,244,293,292
 96, 146,147,196,195,244,245,294,293
 97, 197,198,247,246,295,296,345,344
 98, 198,199,248,247,296,297,346,345
 99, 199,200,249,248,297,298,347,346
 100, 200,201,250,249,298,299,348,347
 101, 201,202,251,250,299,300,349,348
 102, 202,203,252,251,300,301,350,349
 103, 203,204,253,252,301,302,351,350
 104, 204,205,254,253,302,303,352,351
 105, 205,206,255,254,303,304,353,352
 106, 206,207,256,255,304,305,354,353
 107, 207,208,257,256,305,306,355,354
 108, 208,209,258,257,306,307,356,355
 109, 209,210,259,258,307,308,357,356
 110, 210,211,260,259,308,309,358,357
 111, 211,212,261,260,309,310,359,358
 112, 212,213,262,261,310,311,360,359
 113, 213,214,263,262,311,312,361,360
 114, 214,215,264,263,312,313,362,361
 115, 215,216,265,264,313,314,363,362
 116, 216,217,266,265,314,315,364,363
 117, 217,218,267,266,315,316,365,364
 118, 218,219,268,267,316,317,366,365
 119, 219,220,269,268,317,318,367,366
 120, 220,221,270,269,318,319,368,367
 121, 221,222,271,270,319,320,369,368
 122, 222,223,272,271,320,321,370,369
 123, 223,224,273,272,321,322,371,370
 124, 224,225,274,273,322,323,372,371
 125, 225,226,275,274,323,324,373,372
 126, 226,227,276,275,324,325,374,373
 127, 227,228,277,276,325,326,375,374
 128, 228,229,278,277,326,327,376,375
 129, 229,230,279,278,327,328,377,376
 130, 230,231,280,279,328,329,378,377
 131, 231,232,281,280,329,330,379,378
 132, 232,233,282,281,330,331,380,379
 133, 233,234,283,282,331,332,381,380
 134, 234,235,284,283,332,333,382,381
 135, 235,236,285,284,333,334,383,382
 136, 236,237,286,285,334,335,384,383
 137, 237,238,287,286,335,336,385,384
 138, 238,239,288,287,336,337,386,385
 139, 239,240,289,288,337,338,387,386
 140, 240,241,290,289,338,339,388,387
 141, 241,242,291,290,339,340,389,388
 142, 242,243,292,291,340,341,390,389
 143, 243,244,293,292,341,342,391,390
 144, 244,245,294,293,342,343,392,391
 145, 295,296,345,344,393,394,443,442
 146, 296,297,346,345,394,395,444,443
 147, 297,298,347,346,395,396,445,444
 148, 298,299,348,347,396,397,446,445
 149, 299,300,349,348,397,398,447,446
 150, 300,301,350,349,398,399,448,447
 151, 301,302,351,350,399,400,449,448
 152, 302,303,352,351,400,401,450,449
 153, 303,304,353,352,401,402,451,450
 154, 304,305,354,353,402,403,452,451
 155, 305,306,355,354,403,404,453,452
 156, 306,307,356,355,404,405,454,453
 157, 307,308,357,356,405,406,455,454
 158, 308,309,358,357,406,407,456,455
 159, 309,310,359,358,407,408,457,456
 160, 310,311,360,359,408,409,458,457
 161, 311,312,361,360,409,410,459,458
 162, 312,313,362,361,410,411,460,459
 163, 313,314,363,362,411,412,461,460
 164, 314,315,364,363,412,413,462,461
 165, 315,316,365,364,413,414,463,462
 166, 316,317,366,365,414,415,464,463
 167, 317,318,367,366,415,416,465,464
 168, 318,319,368,367,416,417,466,465
 169, 319,320,369,368,417,418,467,466
 170, 320,321,370,369,418,419,468,467
 171, 321,322,371,370,419,420,469,468
 172, 322,323,372,371,420,421,470,469
 173, 323,324,373,372,421,422,471,470
 174, 324,325,374,373,422,423,472,471
 175, 325,326,375,374,423,424,473,472
 176, 326,327,376,375,424,425,474,473
 177, 327,328,377,376,425,426,475,474
 178, 328,329,378,377,426,427,476,475
 179, 329,330,379,378,427,428,477,476
 180, 330,331,380,379,428,429,478,477
 181, 331,332,381,380,429,430,479,478
 182, 332,333,382,381,430,431,480,479
 183, 333,334,383,382,431,432,481,480
 184, 334,335,384,383,432,433,482,481
 185, 335,336,385,384,433,434,483,482
 186, 336,337,386,385,434,435,484,483
 187, 337,338,387,386,435,436,485,484
 188, 338,339,388,387,436,437,486,485
 189, 339,340,389,388,437,438,487,486
 190, 340,341,390,389,438,439,488,487
 191, 341,342,391,390,439,440,489,488
 192, 342,343,392,391,440,441,490,489
 193, 393,394,443,442,491,492,541,540
 194, 394,395,444,443,492,493,542,541
 195, 395,396,445,444,493,494,543,542
 196, 396,397,446,445,494,495,544,543
 197, 397,398,447,446,495,496,545,544
 198, 398,399,448,447,496,497,546,545
 199, 399,400,449,448,497,498,547,546
 200, 400,401,450,449,498,499,548,547
 201, 401,402,451,450,499,500,549,548
 202, 402,403,452,451,500,501,550,549
 203, 403,404,453,452,501,502,551,550
 204, 404,405,454,453,502,503,552,551
 205, 405,406,455,454,503,504,553,552
 206, 406,407,456,455,504,505,554,553
 207, 407,408,457,456,505,506,555,554
 208, 408,409,458,457,506,507,556,555
 209, 409,410,459,458,507,508,557,556
 210, 410,411,460,459,508,509,558,557
 211, 411,412,461,460,509,510,559,558
 212, 412,413,462,461,510,511,560,559
 213, 413,414,463,462,511,512,561,560
 214, 414,415,464,463,512,513,562,561
 215, 415,416,465,464,513,514,563,562
 216, 416,417,466,465,514,515,564,563
 217, 417,418,467,466,515,516,565,564
 218, 418,419,468,467,516,517,566,565
 219, 419,420,469,468,517,518,567,566
 220, 420,421,470,469,518,519,568,567
 221, 421,422,471,470,519,520,569,568
 222, 422,423,472,471,520,521,570,569
 223, 423,424,473,472,521,522,571,570
 224, 424,425,474,473,522,523,572,571
 225, 425,426,475,474,523,524,573,572
 226, 426,427,476,475,524,525,574,573
 227, 427,428,477,476,525,526,575,574
 228, 428,429,478,477,526,527,576,575
 229, 429,430,479,478,527,528,577,576
 230, 430,431,480,479,528,529,578,577
 231, 431,432,481,480,529,530,579,578
 232, 432,433,482,481,530,531,580,579
 233, 433,434,483,482,531,532,581,580
 234, 434,435,484,483,532,533,582,581
 235, 435,436,485,484,533,534,583,582
 236, 436,437,486,485,534,535,584,583
 237, 437,438,487,486,535,536,585,584
 238, 438,439,488,487,536,537,586,585
 239, 439,440,489,488,537,538,587,586
 240, 440,441,490,489,538,539,588,587
 241, 491,492,541,540,589,590,639,638
 242, 492,493,542,541,590,591,640,639
 243, 493,494,543,542,591,592,641,640
 244, 494,495,544,543,592,593,642,641
 245, 495,496,545,544,593,594,643,642
 246, 496,497,546,545,594,595,644,643
 247, 497,498,547,546,595,596,645,644
 248, 498,499,548,547,596,597,646,645
 249, 499,500,549,548,597,598,647,646
 250, 500,501,550,549,598,599,648,647
 251, 501,502,551,550,599,600,649,648
 252, 502,503,552,551,600,601,650,649
 253, 503,504,553,552,601,602,651,650
 254, 504,505,554,553,602,603,652,651
 255, 505,506,555,554,603,604,653,652
 256, 506,507,556,555,604,605,654,653
 257, 507,508,557,556,605,606,655,654
 258, 508,509,558,557,606,607,656,655
 259, 509,510,559,558,607,608,657,656
 260, 510,511,560,559,608,609,658,657
 261, 511,512,561,560,609,610,659,658
 262, 512,513,562,561,610,611,660,659
 263, 513,514,563,562,611,612,661,660
 264, 514,515,564,563,612,613,662,661
 265, 515,516,565,564,613,614,663,662
 266, 516,517,566,565,614,615,664,663
 267, 517,518,567,566,615,616,665,664
 268, 518,519,568,567,616,617,666,665
 269, 519,520,569,568,617,618,667,666
 270, 520,521,570,569,618,619,668,667
 271, 521,522,571,570,619,620,669,668
 272, 522,523,572,571,620,621,670,669
 273, 523,524,573,572,621,622,671,670
 274, 524,525,574,573,622,623,672,671
 275, 525,526,575,574,623,624,673,672
 276, 526,527,576,575,624,625,674,673
 277, 527,528,577,576,625,626,675,674
 278, 528,529,578,577,626,627,676,675
 279, 529,530,579,578,627,628,677,676
 280, 530,531,580,579,628,629,678,677
 281, 531,532,581,580,629,630,679,678
 282, 532,533,582,581,630,631,680,679
 283, 533,534,583,582,631,632,681,680
 284, 534,535,584,583,632,633,682,681
 285, 535,536,585,584,633,634,683,682
 286, 536,537,586,585,634,635,684,683
 287, 537,538,587,586,635,636,685,684
 288, 538,539,588,587,636,637,686,685
 289, 589,590,639,638,687,688,737,736
 290, 590,591,640,639,688,689,738,737
 291, 591,592,641,640,689,690,739,738
 292, 592,593,642,641,690,691,740,739
 293, 593,594,643,642,691,692,741,740
 294, 594,595,644,643,692,693,742,741
 295, 595,596,645,644,693,694,743,742
 296, 596,597,646,645,694,695,744,743
 297, 597,598,647,646,695,696,745,744
 298, 598,599,648,647,696,697,746,745
 299, 599,600,649,648,697,698,747,746
 300, 600,601,650,649,698,699,748,747
 301, 601,602,651,650,699,700,749,748
 302, 602,603,652,651,700,701,750,749
 303, 603,604,653,652,701,702,751,750
 304, 604,605,654,653,702,703,752,751
 305, 605,606,655,654,703,704,753,752
 306, 606,607,656,655,704,705,754,753
 307, 607,608,657,656,705,706,755,754
 308, 608,609,658,657,706,707,756,755
 309, 609,610,659,658,707,708,757,756
 310, 610,611,660,659,708,709,758,757
 311, 611,612,661,660,709,710,759,758
 312, 612,613,662,661,710,711,760,759
 313, 613,614,663,662,711,712,761,760
 314, 614,615,664,663,712,713,762,761
 315, 615,616,665,664,713,714,763,762
 316, 616,617,666,665,714,715,764,763
 317, 617,618,667,666,715,716,765,764
 318, 618,619,668,667,716,717,766,765
 319, 619,620,669,668,717,718,767,766
 320, 620,621,670,669,718,719,768,767
 321, 621,622,671,670,719,720,769,768
 322, 622,623,672,671,720,721,770,769
 323, 623,624,673,672,721,722,771,770
 324, 624,625,674,673,722,723,772,771
 325, 625,626,675,674,723,724,773,772
 326, 626,627,676,675,724,725,774,773
 327, 627,628,677,676,725,726,775,774
 328, 628,629,678,677,726,727,776,775
 329, 629,630,679,678,727,728,777,776
 330, 630,631,680,679,728,729,778,777
 331, 631,632,681,680,729,730,779,778
 332, 632,633,682,681,730,731,780,779
 333, 633,634,683,682,731,732,781,780
 334, 634,635,684,683,732,733,782,781
 335, 635,636,685,684,733,734,783,782
 336, 636,637,686,685,734,735,784,783
 337, 687,688,737,736,785,786,835,834
 338, 688,689,738,737,786,787,836,835
 339, 689,690,739,738,787,788,837,836
 340, 690,691,740,739,788,789,838,837
 341, 691,692,741,740,789,790,839,838
 342, 692,693,742,741,790,791,840,839
 343, 693,694,743,742,791,792,841,840
 344, 694,695,744,743,792,793,842,841
 345, 695,696,745,744,793,794,843,842
 346, 696,697,746,745,794,795,844,843
 347, 697,698,747,746,795,796,845,844
 348, 698,699,748,747,796,797,846,845
 349, 699,700,749,748,797,798,847,846
 350, 700,701,750,749,798,799,848,847
 351, 701,702,751,750,799,800,849,848
 352, 702,703,752,751,800,801,850,849
 353, 703,704,753,752,801,802,851,850
 354, 704,705,754,753,802,803,852,851
 355, 705,706,755,754,803,804,853,852
 356, 706,707,756,755,804,805,854,853
 357, 707,708,757,756,805,806,855,854
 358, 708,709,758,757,806,807,856,855
 359, 709,710,759,758,807,808,857,856
 360, 710,711,760,759,808,809,858,857
 361, 711,712,761,760,809,810,859,858
 362, 712,713,762,761,810,811,860,859
 363, 713,714,763,762,811,812,861,860
 364, 714,715,764,763,812,813,862,861
 365, 715,716,765,764,813,814,863,862
 366, 716,717,766,765,814,815,864,863
 367, 717,718,767,766,815,816,865,864
 368, 718,719,768,767,816,817,866,865
 369, 719,720,769,768,817,818,867,866
 370, 720,721,770,769,818,819,868,867
 371, 721,722,771,770,819,820,869,868
 372, 722,723,772,771,820,821,870,869
 373, 723,724,773,772,821,822,871,870
 374, 724,725,774,773,822,823,872,871
 375, 725,726,775,774,823,824,873,872
 376, 726,727,776,775,824,825,874,873
 377, 727,728,777,776,825,826,875,874
 378, 728,729,778,777,826,827,876,875
 379, 729,730,779,778,827,828,877,876
 380, 730,731,780,779,828,829,878,877
 381, 731,732,781,780,829,830,879,878
 382, 732,733,782,781,830,831,880,879
 383, 733,734,783,782,831,832,881,880
 384, 734,735,784,783,832,833,882,881
*ELSET, ELSET=CRUST
 289,290,291,292,293,294,295,296,297,298,299,300
 301,302,303,304,305,306,307,308,309,310,311,312
 313,314,315,316,317,318,319,320,321,322,323,324
 325,326,327,328,329,330,331,332,333,334,335,336
 337,338,339,340,341,342,343,344,345,346,347,348
 349,350,351,352,353,354,355,356,357,358,359,360
 361,362,363,364,365,366,367,368,369,370,371,372
 373,374,375,376,377,378,379,380,381,382,383,384
*ELSET, ELSET=BASE
 1,2,3,4,5,6,7,8,9,10,11,12
 13,14,15,16,17,18,19,20,21,22,23,24
 25,26,27,28,29,30,31,32,33,34,35,36
 37,38,39,40,41,42,43,44,45,46,47,48
 49,50,51,52,53,54,55,56,57,58,59,60
 61,62,63,64,65,66,67,68,69,70,71,72
 73,74,75,76,77,78,79,80,81,82,83,84
 85,86,87,88,89,90,91,92,93,94,95,96
 97,98,99,100,101,102,103,104,105,106,107,108
 109,110,111,112,113,114,115,116,117,118,119,120
 121,122,123,124,125,126,127,128,129,130,131,132
 133,134,135,136,137,138,139,140,141,142,143,144
 145,146,147,148,149,150,151,152,153,154,155,156
 157,158,159,160,161,162,163,164,165,166,167,168
 169,170,171,172,173,174,175,176,177,178,179,180
 181,182,183,184,185,186,187,188,189,190,191,192
 193,194,195,196,197,198,199,200,201,202,203,204
 205,206,207,208,209,210,211,212,213,214,215,216
 217,218,219,220,221,222,223,224,225,226,227,228
 229,230,231,232,233,234,235,236,237,238,239,240
 241,242,243,244,245,246,247,248,249,250,251,252
 253,254,255,256,257,258,259,260,261,262,263,264
 265,266,267,268,269,270,271,272,273,274,275,276
 277,278,279,280,281,282,283,284,285,286,287,288
*SOLID SECTION, ELSET=CRUST, MATERIAL=CRUSTMAT
*MATERIAL, NAME=CRUSTMAT
*USER MATERIAL, CONSTANTS=2
 50000, 0.45
*DEPVAR
 1
*SOLID SECTION, ELSET=BASE, MATERIAL=BASEMAT
*MATERIAL, NAME=BASEMAT
*ELASTIC
 2000, 0.45
*NSET, NSET=XSYM
 1,50,99,148,197,246,295,344,393,442,491,540
 589,638,687,736,785,834
*NSET, NSET=YSYM
 1,2,3,4,5,6,7,8,9,10,11,12
 13,14,15,16,17,18,19,20,21,22,23,24
 25,26,27,28,29,30,31,32,33,34,35,36
 37,38,39,40,41,42,43,44,45,46,47,48
 49,50,51,52,53,54,55,56,57,58,59,60
 61,62,63,64,65,66,67,68,69,70,71,72
 73,74,75,76,77,78,79,80,81,82,83,84
 85,86,87,88,89,90,91,92,93,94,95,96
 97,98,99,100,101,102,103,104,105,106,107,108
 109,110,111,112,113,114,115,116,117,118,119,120
 121,122,123,124,125,126,127,128,129,130,131,132
 133,134,135,136,137,138,139,140,141,142,143,144
 145,146,147,148,149,150,151,152,153,154,155,156
 157,158,159,160,161,162,163,164,165,166,167,168
 169,170,171,172,173,174,175,176,177,178,179,180
 181,182,183,184,185,186,187,188,189,190,191,192
 193,194,195,196,197,198,199,200,201,202,203,204
 205,206,207,208,209,210,211,212,213,214,215,216
 217,218,219,220,221,222,223,224,225,226,227,228
 229,230,231,232,233,234,235,236,237,238,239,240
 241,242,243,244,245,246,247,248,249,250,251,252
 253,254,255,256,257,258,259,260,261,262,263,264
 265,266,267,268,269,270,271,272,273,274,275,276
 277,278,279,280,281,282,283,284,285,286,287,288
 289,290,291,292,293,294,295,296,297,298,299,300
 301,302,303,304,305,306,307,308,309,310,311,312
 313,314,315,316,317,318,319,320,321,322,323,324
 325,326,327,328,329,330,331,332,333,334,335,336
 337,338,339,340,341,342,343,344,345,346,347,348
 349,350,351,352,353,354,355,356,357,358,359,360
 361,362,363,364,365,366,367,368,369,370,371,372
 373,374,375,376,377,378,379,380,381,382,383,384
 385,386,387,388,389,390,391,392,393,394,395,396
 397,398,399,400,401,402,403,404,405,406,407,408
 409,410,411,412,413,414,415,416,417,418,419,420
 421,422,423,424,425,426,427,428,429,430,431,432
 433,434,435,436,437,438,439,440,441,442,443,444
 445,446,447,448,449,450,451,452,453,454,455,456
 457,458,459,460,461,462,463,464,465,466,467,468
 469,470,471,472,473,474,475,476,477,478,479,480
 481,482,483,484,485,486,487,488,489,490,491,492
 493,494,495,496,497,498,499,500,501,502,503,504
 505,506,507,508,509,510,511,512,513,514,515,516
 517,518,519,520,521,522,523,524,525,526,527,528
 529,530,531,532,533,534,535,536,537,538,539,540
 541,542,543,544,545,546,547,548,549,550,551,552
 553,554,555,556,557,558,559,560,561,562,563,564
 565,566,567,568,569,570,571,572,573,574,575,576
 577,578,579,580,581,582,583,584,585,586,587,588
 589,590,591,592,593,594,595,596,597,598,599,600
 601,602,603,604,605,606,607,608,609,610,611,612
 613,614,615,616,617,618,619,620,621,622,623,624
 625,626,627,628,629,630,631,632,633,634,635,636
 637,638,639,640,641,642,643,644,645,646,647,648
 649,650,651,652,653,654,655,656,657,658,659,660
 661,662,663,664,665,666,667,668,669,670,671,672
 673,674,675,676,677,678,679,680,681,682,683,684
 685,686,687,688,689,690,691,692,693,694,695,696
 697,698,699,700,701,702,703,704,705,706,707,708
 709,710,711,712,713,714,715,716,717,718,719,720
 721,722,723,724,725,726,727,728,729,730,731,732
 733,734,735,736,737,738,739,740,741,742,743,744
 745,746,747,748,749,750,751,752,753,754,755,756
 757,758,759,760,761,762,763,764,765,766,767,768
 769,770,771,772,773,774,775,776,777,778,779,780
 781,782,783,784,785,786,787,788,789,790,791,792
 793,794,795,796,797,798,799,800,801,802,803,804
 805,806,807,808,809,810,811,812,813,814,815,816
 817,818,819,820,821,822,823,824,825,826,827,828
 829,830,831,832,833,834,835,836,837,838,839,840
 841,842,843,844,845,846,847,848,849,850,851,852
 853,854,855,856,857,858,859,860,861,862,863,864
 865,866,867,868,869,870,871,872,873,874,875,876
 877,878,879,880,881,882
*NSET, NSET=ZBOT
 1,2,3,4,5,6,7,8,9,10,11,12
 13,14,15,16,17,18,19,20,21,22,23,24
 25,26,27,28,29,30,31,32,33,34,35,36
 37,38,39,40,41,42,43,44,45,46,47,48
 49,50,51,52,53,54,55,56,57,58,59,60
 61,62,63,64,65,66,67,68,69,70,71,72
 73,74,75,76,77,78,79,80,81,82,83,84
 85,86,87,88,89,90,91,92,93,94,95,96
 97,98
*BOUNDARY
 XSYM, 1, 1
 YSYM, 2, 2
 ZBOT, 1, 3
*STEP, NLGEOM=YES, INC=1000
 differential growth of crust -> wrinkling
*STATIC, STABILIZE=0.002, ALLSDTOL=0.05, CONTINUE=NO
 0.01, 1.0, 1.0E-8, 0.02
*OUTPUT, FIELD, FREQUENCY=1
*NODE OUTPUT
 U
*ELEMENT OUTPUT, POSITION=CENTROID
 S
*END STEP
