*HEADING
 Implant-thread biofilm eigenstrain deck: cond=DH profile=thread amp=0.180 (CPE4, no UMAT)
*NODE
 1, 0.000000, 0.000000
 2, 0.083333, 0.012058
 3, 0.166667, 0.045000
 4, 0.250000, 0.090000
 5, 0.333333, 0.135000
 6, 0.416667, 0.167942
 7, 0.500000, 0.180000
 8, 0.583333, 0.167942
 9, 0.666667, 0.135000
 10, 0.750000, 0.090000
 11, 0.833333, 0.045000
 12, 0.916667, 0.012058
 13, 1.000000, 0.000000
 14, 1.083333, 0.012058
 15, 1.166667, 0.045000
 16, 1.250000, 0.090000
 17, 1.333333, 0.135000
 18, 1.416667, 0.167942
 19, 1.500000, 0.180000
 20, 1.583333, 0.167942
 21, 1.666667, 0.135000
 22, 1.750000, 0.090000
 23, 1.833333, 0.045000
 24, 1.916667, 0.012058
 25, 2.000000, 0.000000
 26, 2.083333, 0.012058
 27, 2.166667, 0.045000
 28, 2.250000, 0.090000
 29, 2.333333, 0.135000
 30, 2.416667, 0.167942
 31, 2.500000, 0.180000
 32, 2.583333, 0.167942
 33, 2.666667, 0.135000
 34, 2.750000, 0.090000
 35, 2.833333, 0.045000
 36, 2.916667, 0.012058
 37, 3.000000, 0.000000
 38, 0.000000, 0.166667
 39, 0.083333, 0.178724
 40, 0.166667, 0.211667
 41, 0.250000, 0.256667
 42, 0.333333, 0.301667
 43, 0.416667, 0.334609
 44, 0.500000, 0.346667
 45, 0.583333, 0.334609
 46, 0.666667, 0.301667
 47, 0.750000, 0.256667
 48, 0.833333, 0.211667
 49, 0.916667, 0.178724
 50, 1.000000, 0.166667
 51, 1.083333, 0.178724
 52, 1.166667, 0.211667
 53, 1.250000, 0.256667
 54, 1.333333, 0.301667
 55, 1.416667, 0.334609
 56, 1.500000, 0.346667
 57, 1.583333, 0.334609
 58, 1.666667, 0.301667
 59, 1.750000, 0.256667
 60, 1.833333, 0.211667
 61, 1.916667, 0.178724
 62, 2.000000, 0.166667
 63, 2.083333, 0.178724
 64, 2.166667, 0.211667
 65, 2.250000, 0.256667
 66, 2.333333, 0.301667
 67, 2.416667, 0.334609
 68, 2.500000, 0.346667
 69, 2.583333, 0.334609
 70, 2.666667, 0.301667
 71, 2.750000, 0.256667
 72, 2.833333, 0.211667
 73, 2.916667, 0.178724
 74, 3.000000, 0.166667
 75, 0.000000, 0.333333
 76, 0.083333, 0.345391
 77, 0.166667, 0.378333
 78, 0.250000, 0.423333
 79, 0.333333, 0.468333
 80, 0.416667, 0.501276
 81, 0.500000, 0.513333
 82, 0.583333, 0.501276
 83, 0.666667, 0.468333
 84, 0.750000, 0.423333
 85, 0.833333, 0.378333
 86, 0.916667, 0.345391
 87, 1.000000, 0.333333
 88, 1.083333, 0.345391
 89, 1.166667, 0.378333
 90, 1.250000, 0.423333
 91, 1.333333, 0.468333
 92, 1.416667, 0.501276
 93, 1.500000, 0.513333
 94, 1.583333, 0.501276
 95, 1.666667, 0.468333
 96, 1.750000, 0.423333
 97, 1.833333, 0.378333
 98, 1.916667, 0.345391
 99, 2.000000, 0.333333
 100, 2.083333, 0.345391
 101, 2.166667, 0.378333
 102, 2.250000, 0.423333
 103, 2.333333, 0.468333
 104, 2.416667, 0.501276
 105, 2.500000, 0.513333
 106, 2.583333, 0.501276
 107, 2.666667, 0.468333
 108, 2.750000, 0.423333
 109, 2.833333, 0.378333
 110, 2.916667, 0.345391
 111, 3.000000, 0.333333
 112, 0.000000, 0.500000
 113, 0.083333, 0.512058
 114, 0.166667, 0.545000
 115, 0.250000, 0.590000
 116, 0.333333, 0.635000
 117, 0.416667, 0.667942
 118, 0.500000, 0.680000
 119, 0.583333, 0.667942
 120, 0.666667, 0.635000
 121, 0.750000, 0.590000
 122, 0.833333, 0.545000
 123, 0.916667, 0.512058
 124, 1.000000, 0.500000
 125, 1.083333, 0.512058
 126, 1.166667, 0.545000
 127, 1.250000, 0.590000
 128, 1.333333, 0.635000
 129, 1.416667, 0.667942
 130, 1.500000, 0.680000
 131, 1.583333, 0.667942
 132, 1.666667, 0.635000
 133, 1.750000, 0.590000
 134, 1.833333, 0.545000
 135, 1.916667, 0.512058
 136, 2.000000, 0.500000
 137, 2.083333, 0.512058
 138, 2.166667, 0.545000
 139, 2.250000, 0.590000
 140, 2.333333, 0.635000
 141, 2.416667, 0.667942
 142, 2.500000, 0.680000
 143, 2.583333, 0.667942
 144, 2.666667, 0.635000
 145, 2.750000, 0.590000
 146, 2.833333, 0.545000
 147, 2.916667, 0.512058
 148, 3.000000, 0.500000
 149, 0.000000, 0.666667
 150, 0.083333, 0.678724
 151, 0.166667, 0.711667
 152, 0.250000, 0.756667
 153, 0.333333, 0.801667
 154, 0.416667, 0.834609
 155, 0.500000, 0.846667
 156, 0.583333, 0.834609
 157, 0.666667, 0.801667
 158, 0.750000, 0.756667
 159, 0.833333, 0.711667
 160, 0.916667, 0.678724
 161, 1.000000, 0.666667
 162, 1.083333, 0.678724
 163, 1.166667, 0.711667
 164, 1.250000, 0.756667
 165, 1.333333, 0.801667
 166, 1.416667, 0.834609
 167, 1.500000, 0.846667
 168, 1.583333, 0.834609
 169, 1.666667, 0.801667
 170, 1.750000, 0.756667
 171, 1.833333, 0.711667
 172, 1.916667, 0.678724
 173, 2.000000, 0.666667
 174, 2.083333, 0.678724
 175, 2.166667, 0.711667
 176, 2.250000, 0.756667
 177, 2.333333, 0.801667
 178, 2.416667, 0.834609
 179, 2.500000, 0.846667
 180, 2.583333, 0.834609
 181, 2.666667, 0.801667
 182, 2.750000, 0.756667
 183, 2.833333, 0.711667
 184, 2.916667, 0.678724
 185, 3.000000, 0.666667
 186, 0.000000, 0.833333
 187, 0.083333, 0.845391
 188, 0.166667, 0.878333
 189, 0.250000, 0.923333
 190, 0.333333, 0.968333
 191, 0.416667, 1.001276
 192, 0.500000, 1.013333
 193, 0.583333, 1.001276
 194, 0.666667, 0.968333
 195, 0.750000, 0.923333
 196, 0.833333, 0.878333
 197, 0.916667, 0.845391
 198, 1.000000, 0.833333
 199, 1.083333, 0.845391
 200, 1.166667, 0.878333
 201, 1.250000, 0.923333
 202, 1.333333, 0.968333
 203, 1.416667, 1.001276
 204, 1.500000, 1.013333
 205, 1.583333, 1.001276
 206, 1.666667, 0.968333
 207, 1.750000, 0.923333
 208, 1.833333, 0.878333
 209, 1.916667, 0.845391
 210, 2.000000, 0.833333
 211, 2.083333, 0.845391
 212, 2.166667, 0.878333
 213, 2.250000, 0.923333
 214, 2.333333, 0.968333
 215, 2.416667, 1.001276
 216, 2.500000, 1.013333
 217, 2.583333, 1.001276
 218, 2.666667, 0.968333
 219, 2.750000, 0.923333
 220, 2.833333, 0.878333
 221, 2.916667, 0.845391
 222, 3.000000, 0.833333
 223, 0.000000, 1.000000
 224, 0.083333, 1.012058
 225, 0.166667, 1.045000
 226, 0.250000, 1.090000
 227, 0.333333, 1.135000
 228, 0.416667, 1.167942
 229, 0.500000, 1.180000
 230, 0.583333, 1.167942
 231, 0.666667, 1.135000
 232, 0.750000, 1.090000
 233, 0.833333, 1.045000
 234, 0.916667, 1.012058
 235, 1.000000, 1.000000
 236, 1.083333, 1.012058
 237, 1.166667, 1.045000
 238, 1.250000, 1.090000
 239, 1.333333, 1.135000
 240, 1.416667, 1.167942
 241, 1.500000, 1.180000
 242, 1.583333, 1.167942
 243, 1.666667, 1.135000
 244, 1.750000, 1.090000
 245, 1.833333, 1.045000
 246, 1.916667, 1.012058
 247, 2.000000, 1.000000
 248, 2.083333, 1.012058
 249, 2.166667, 1.045000
 250, 2.250000, 1.090000
 251, 2.333333, 1.135000
 252, 2.416667, 1.167942
 253, 2.500000, 1.180000
 254, 2.583333, 1.167942
 255, 2.666667, 1.135000
 256, 2.750000, 1.090000
 257, 2.833333, 1.045000
 258, 2.916667, 1.012058
 259, 3.000000, 1.000000
*ELEMENT, TYPE=CPE4
 1, 1, 2, 39, 38
 2, 2, 3, 40, 39
 3, 3, 4, 41, 40
 4, 4, 5, 42, 41
 5, 5, 6, 43, 42
 6, 6, 7, 44, 43
 7, 7, 8, 45, 44
 8, 8, 9, 46, 45
 9, 9, 10, 47, 46
 10, 10, 11, 48, 47
 11, 11, 12, 49, 48
 12, 12, 13, 50, 49
 13, 13, 14, 51, 50
 14, 14, 15, 52, 51
 15, 15, 16, 53, 52
 16, 16, 17, 54, 53
 17, 17, 18, 55, 54
 18, 18, 19, 56, 55
 19, 19, 20, 57, 56
 20, 20, 21, 58, 57
 21, 21, 22, 59, 58
 22, 22, 23, 60, 59
 23, 23, 24, 61, 60
 24, 24, 25, 62, 61
 25, 25, 26, 63, 62
 26, 26, 27, 64, 63
 27, 27, 28, 65, 64
 28, 28, 29, 66, 65
 29, 29, 30, 67, 66
 30, 30, 31, 68, 67
 31, 31, 32, 69, 68
 32, 32, 33, 70, 69
 33, 33, 34, 71, 70
 34, 34, 35, 72, 71
 35, 35, 36, 73, 72
 36, 36, 37, 74, 73
 37, 38, 39, 76, 75
 38, 39, 40, 77, 76
 39, 40, 41, 78, 77
 40, 41, 42, 79, 78
 41, 42, 43, 80, 79
 42, 43, 44, 81, 80
 43, 44, 45, 82, 81
 44, 45, 46, 83, 82
 45, 46, 47, 84, 83
 46, 47, 48, 85, 84
 47, 48, 49, 86, 85
 48, 49, 50, 87, 86
 49, 50, 51, 88, 87
 50, 51, 52, 89, 88
 51, 52, 53, 90, 89
 52, 53, 54, 91, 90
 53, 54, 55, 92, 91
 54, 55, 56, 93, 92
 55, 56, 57, 94, 93
 56, 57, 58, 95, 94
 57, 58, 59, 96, 95
 58, 59, 60, 97, 96
 59, 60, 61, 98, 97
 60, 61, 62, 99, 98
 61, 62, 63, 100, 99
 62, 63, 64, 101, 100
 63, 64, 65, 102, 101
 64, 65, 66, 103, 102
 65, 66, 67, 104, 103
 66, 67, 68, 105, 104
 67, 68, 69, 106, 105
 68, 69, 70, 107, 106
 69, 70, 71, 108, 107
 70, 71, 72, 109, 108
 71, 72, 73, 110, 109
 72, 73, 74, 111, 110
 73, 75, 76, 113, 112
 74, 76, 77, 114, 113
 75, 77, 78, 115, 114
 76, 78, 79, 116, 115
 77, 79, 80, 117, 116
 78, 80, 81, 118, 117
 79, 81, 82, 119, 118
 80, 82, 83, 120, 119
 81, 83, 84, 121, 120
 82, 84, 85, 122, 121
 83, 85, 86, 123, 122
 84, 86, 87, 124, 123
 85, 87, 88, 125, 124
 86, 88, 89, 126, 125
 87, 89, 90, 127, 126
 88, 90, 91, 128, 127
 89, 91, 92, 129, 128
 90, 92, 93, 130, 129
 91, 93, 94, 131, 130
 92, 94, 95, 132, 131
 93, 95, 96, 133, 132
 94, 96, 97, 134, 133
 95, 97, 98, 135, 134
 96, 98, 99, 136, 135
 97, 99, 100, 137, 136
 98, 100, 101, 138, 137
 99, 101, 102, 139, 138
 100, 102, 103, 140, 139
 101, 103, 104, 141, 140
 102, 104, 105, 142, 141
 103, 105, 106, 143, 142
 104, 106, 107, 144, 143
 105, 107, 108, 145, 144
 106, 108, 109, 146, 145
 107, 109, 110, 147, 146
 108, 110, 111, 148, 147
 109, 112, 113, 150, 149
 110, 113, 114, 151, 150
 111, 114, 115, 152, 151
 112, 115, 116, 153, 152
 113, 116, 117, 154, 153
 114, 117, 118, 155, 154
 115, 118, 119, 156, 155
 116, 119, 120, 157, 156
 117, 120, 121, 158, 157
 118, 121, 122, 159, 158
 119, 122, 123, 160, 159
 120, 123, 124, 161, 160
 121, 124, 125, 162, 161
 122, 125, 126, 163, 162
 123, 126, 127, 164, 163
 124, 127, 128, 165, 164
 125, 128, 129, 166, 165
 126, 129, 130, 167, 166
 127, 130, 131, 168, 167
 128, 131, 132, 169, 168
 129, 132, 133, 170, 169
 130, 133, 134, 171, 170
 131, 134, 135, 172, 171
 132, 135, 136, 173, 172
 133, 136, 137, 174, 173
 134, 137, 138, 175, 174
 135, 138, 139, 176, 175
 136, 139, 140, 177, 176
 137, 140, 141, 178, 177
 138, 141, 142, 179, 178
 139, 142, 143, 180, 179
 140, 143, 144, 181, 180
 141, 144, 145, 182, 181
 142, 145, 146, 183, 182
 143, 146, 147, 184, 183
 144, 147, 148, 185, 184
 145, 149, 150, 187, 186
 146, 150, 151, 188, 187
 147, 151, 152, 189, 188
 148, 152, 153, 190, 189
 149, 153, 154, 191, 190
 150, 154, 155, 192, 191
 151, 155, 156, 193, 192
 152, 156, 157, 194, 193
 153, 157, 158, 195, 194
 154, 158, 159, 196, 195
 155, 159, 160, 197, 196
 156, 160, 161, 198, 197
 157, 161, 162, 199, 198
 158, 162, 163, 200, 199
 159, 163, 164, 201, 200
 160, 164, 165, 202, 201
 161, 165, 166, 203, 202
 162, 166, 167, 204, 203
 163, 167, 168, 205, 204
 164, 168, 169, 206, 205
 165, 169, 170, 207, 206
 166, 170, 171, 208, 207
 167, 171, 172, 209, 208
 168, 172, 173, 210, 209
 169, 173, 174, 211, 210
 170, 174, 175, 212, 211
 171, 175, 176, 213, 212
 172, 176, 177, 214, 213
 173, 177, 178, 215, 214
 174, 178, 179, 216, 215
 175, 179, 180, 217, 216
 176, 180, 181, 218, 217
 177, 181, 182, 219, 218
 178, 182, 183, 220, 219
 179, 183, 184, 221, 220
 180, 184, 185, 222, 221
 181, 186, 187, 224, 223
 182, 187, 188, 225, 224
 183, 188, 189, 226, 225
 184, 189, 190, 227, 226
 185, 190, 191, 228, 227
 186, 191, 192, 229, 228
 187, 192, 193, 230, 229
 188, 193, 194, 231, 230
 189, 194, 195, 232, 231
 190, 195, 196, 233, 232
 191, 196, 197, 234, 233
 192, 197, 198, 235, 234
 193, 198, 199, 236, 235
 194, 199, 200, 237, 236
 195, 200, 201, 238, 237
 196, 201, 202, 239, 238
 197, 202, 203, 240, 239
 198, 203, 204, 241, 240
 199, 204, 205, 242, 241
 200, 205, 206, 243, 242
 201, 206, 207, 244, 243
 202, 207, 208, 245, 244
 203, 208, 209, 246, 245
 204, 209, 210, 247, 246
 205, 210, 211, 248, 247
 206, 211, 212, 249, 248
 207, 212, 213, 250, 249
 208, 213, 214, 251, 250
 209, 214, 215, 252, 251
 210, 215, 216, 253, 252
 211, 216, 217, 254, 253
 212, 217, 218, 255, 254
 213, 218, 219, 256, 255
 214, 219, 220, 257, 256
 215, 220, 221, 258, 257
 216, 221, 222, 259, 258
*ELSET, ELSET=ROW0
 1,2,3,4,5,6,7,8,9,10,11,12,13,14,15,16
 17,18,19,20,21,22,23,24,25,26,27,28,29,30,31,32
 33,34,35,36
*ELSET, ELSET=ROW1
 37,38,39,40,41,42,43,44,45,46,47,48,49,50,51,52
 53,54,55,56,57,58,59,60,61,62,63,64,65,66,67,68
 69,70,71,72
*ELSET, ELSET=ROW2
 73,74,75,76,77,78,79,80,81,82,83,84,85,86,87,88
 89,90,91,92,93,94,95,96,97,98,99,100,101,102,103,104
 105,106,107,108
*ELSET, ELSET=ROW3
 109,110,111,112,113,114,115,116,117,118,119,120,121,122,123,124
 125,126,127,128,129,130,131,132,133,134,135,136,137,138,139,140
 141,142,143,144
*ELSET, ELSET=ROW4
 145,146,147,148,149,150,151,152,153,154,155,156,157,158,159,160
 161,162,163,164,165,166,167,168,169,170,171,172,173,174,175,176
 177,178,179,180
*ELSET, ELSET=ROW5
 181,182,183,184,185,186,187,188,189,190,191,192,193,194,195,196
 197,198,199,200,201,202,203,204,205,206,207,208,209,210,211,212
 213,214,215,216
*ORIENTATION, NAME=ORI, SYSTEM=RECTANGULAR, DEFINITION=COORDINATES
 1.0, 0.0, 0.0, 0.0, 1.0, 0.0
 3, 0.0
*SOLID SECTION, ELSET=ROW0, MATERIAL=MAT0, ORIENTATION=ORI
*SOLID SECTION, ELSET=ROW1, MATERIAL=MAT1, ORIENTATION=ORI
*SOLID SECTION, ELSET=ROW2, MATERIAL=MAT2, ORIENTATION=ORI
*SOLID SECTION, ELSET=ROW3, MATERIAL=MAT3, ORIENTATION=ORI
*SOLID SECTION, ELSET=ROW4, MATERIAL=MAT4, ORIENTATION=ORI
*SOLID SECTION, ELSET=ROW5, MATERIAL=MAT5, ORIENTATION=ORI
*MATERIAL, NAME=MAT0
*ELASTIC
 5000.0, 0.450
*EXPANSION, TYPE=ORTHO, ZERO=0.0
 0.063270, 0.063270, 0.063270
*MATERIAL, NAME=MAT1
*ELASTIC
 5000.0, 0.450
*EXPANSION, TYPE=ORTHO, ZERO=0.0
 0.000000, 0.000000, 0.000000
*MATERIAL, NAME=MAT2
*ELASTIC
 5000.0, 0.450
*EXPANSION, TYPE=ORTHO, ZERO=0.0
 0.000000, 0.000000, 0.000000
*MATERIAL, NAME=MAT3
*ELASTIC
 5000.0, 0.450
*EXPANSION, TYPE=ORTHO, ZERO=0.0
 0.041648, 0.041648, 0.041648
*MATERIAL, NAME=MAT4
*ELASTIC
 5000.0, 0.450
*EXPANSION, TYPE=ORTHO, ZERO=0.0
 0.105379, 0.105379, 0.105379
*MATERIAL, NAME=MAT5
*ELASTIC
 5000.0, 0.450
*EXPANSION, TYPE=ORTHO, ZERO=0.0
 0.128567, 0.128567, 0.128567
*NSET, NSET=BOTTOM
 1,2,3,4,5,6,7,8,9,10,11,12,13,14,15,16
 17,18,19,20,21,22,23,24,25,26,27,28,29,30,31,32
 33,34,35,36,37
*NSET, NSET=LEFT
 1,38,75,112,149,186,223
*NSET, NSET=RIGHT
 37,74,111,148,185,222,259
*NSET, NSET=ALLN
 1,2,3,4,5,6,7,8,9,10,11,12,13,14,15,16
 17,18,19,20,21,22,23,24,25,26,27,28,29,30,31,32
 33,34,35,36,37,38,39,40,41,42,43,44,45,46,47,48
 49,50,51,52,53,54,55,56,57,58,59,60,61,62,63,64
 65,66,67,68,69,70,71,72,73,74,75,76,77,78,79,80
 81,82,83,84,85,86,87,88,89,90,91,92,93,94,95,96
 97,98,99,100,101,102,103,104,105,106,107,108,109,110,111,112
 113,114,115,116,117,118,119,120,121,122,123,124,125,126,127,128
 129,130,131,132,133,134,135,136,137,138,139,140,141,142,143,144
 145,146,147,148,149,150,151,152,153,154,155,156,157,158,159,160
 161,162,163,164,165,166,167,168,169,170,171,172,173,174,175,176
 177,178,179,180,181,182,183,184,185,186,187,188,189,190,191,192
 193,194,195,196,197,198,199,200,201,202,203,204,205,206,207,208
 209,210,211,212,213,214,215,216,217,218,219,220,221,222,223,224
 225,226,227,228,229,230,231,232,233,234,235,236,237,238,239,240
 241,242,243,244,245,246,247,248,249,250,251,252,253,254,255,256
 257,258,259
*INITIAL CONDITIONS, TYPE=TEMPERATURE
 ALLN, 0.0
*BOUNDARY
 BOTTOM, 1, 2
*STEP
 Confined depth growth via thermal eigenstrain -> interface residual stress
*STATIC
*TEMPERATURE
 ALLN, 1.0
*OUTPUT, FIELD
*NODE OUTPUT
 U
*ELEMENT OUTPUT, POSITION=CENTROID
 S, COORD
*END STEP
