*HEADING
 Implant-thread biofilm eigenstrain deck: cond=DH profile=thread amp=0.180 (CPE4, no UMAT)
*NODE
 1, 0.000000, 0.000000
 2, 0.020833, 0.000770
 3, 0.041667, 0.003067
 4, 0.062500, 0.006851
 5, 0.083333, 0.012058
 6, 0.104167, 0.018598
 7, 0.125000, 0.026360
 8, 0.145833, 0.035211
 9, 0.166667, 0.045000
 10, 0.187500, 0.055558
 11, 0.208333, 0.066706
 12, 0.229167, 0.078253
 13, 0.250000, 0.090000
 14, 0.270833, 0.101747
 15, 0.291667, 0.113294
 16, 0.312500, 0.124442
 17, 0.333333, 0.135000
 18, 0.354167, 0.144789
 19, 0.375000, 0.153640
 20, 0.395833, 0.161402
 21, 0.416667, 0.167942
 22, 0.437500, 0.173149
 23, 0.458333, 0.176933
 24, 0.479167, 0.179230
 25, 0.500000, 0.180000
 26, 0.520833, 0.179230
 27, 0.541667, 0.176933
 28, 0.562500, 0.173149
 29, 0.583333, 0.167942
 30, 0.604167, 0.161402
 31, 0.625000, 0.153640
 32, 0.645833, 0.144789
 33, 0.666667, 0.135000
 34, 0.687500, 0.124442
 35, 0.708333, 0.113294
 36, 0.729167, 0.101747
 37, 0.750000, 0.090000
 38, 0.770833, 0.078253
 39, 0.791667, 0.066706
 40, 0.812500, 0.055558
 41, 0.833333, 0.045000
 42, 0.854167, 0.035211
 43, 0.875000, 0.026360
 44, 0.895833, 0.018598
 45, 0.916667, 0.012058
 46, 0.937500, 0.006851
 47, 0.958333, 0.003067
 48, 0.979167, 0.000770
 49, 1.000000, 0.000000
 50, 1.020833, 0.000770
 51, 1.041667, 0.003067
 52, 1.062500, 0.006851
 53, 1.083333, 0.012058
 54, 1.104167, 0.018598
 55, 1.125000, 0.026360
 56, 1.145833, 0.035211
 57, 1.166667, 0.045000
 58, 1.187500, 0.055558
 59, 1.208333, 0.066706
 60, 1.229167, 0.078253
 61, 1.250000, 0.090000
 62, 1.270833, 0.101747
 63, 1.291667, 0.113294
 64, 1.312500, 0.124442
 65, 1.333333, 0.135000
 66, 1.354167, 0.144789
 67, 1.375000, 0.153640
 68, 1.395833, 0.161402
 69, 1.416667, 0.167942
 70, 1.437500, 0.173149
 71, 1.458333, 0.176933
 72, 1.479167, 0.179230
 73, 1.500000, 0.180000
 74, 1.520833, 0.179230
 75, 1.541667, 0.176933
 76, 1.562500, 0.173149
 77, 1.583333, 0.167942
 78, 1.604167, 0.161402
 79, 1.625000, 0.153640
 80, 1.645833, 0.144789
 81, 1.666667, 0.135000
 82, 1.687500, 0.124442
 83, 1.708333, 0.113294
 84, 1.729167, 0.101747
 85, 1.750000, 0.090000
 86, 1.770833, 0.078253
 87, 1.791667, 0.066706
 88, 1.812500, 0.055558
 89, 1.833333, 0.045000
 90, 1.854167, 0.035211
 91, 1.875000, 0.026360
 92, 1.895833, 0.018598
 93, 1.916667, 0.012058
 94, 1.937500, 0.006851
 95, 1.958333, 0.003067
 96, 1.979167, 0.000770
 97, 2.000000, 0.000000
 98, 2.020833, 0.000770
 99, 2.041667, 0.003067
 100, 2.062500, 0.006851
 101, 2.083333, 0.012058
 102, 2.104167, 0.018598
 103, 2.125000, 0.026360
 104, 2.145833, 0.035211
 105, 2.166667, 0.045000
 106, 2.187500, 0.055558
 107, 2.208333, 0.066706
 108, 2.229167, 0.078253
 109, 2.250000, 0.090000
 110, 2.270833, 0.101747
 111, 2.291667, 0.113294
 112, 2.312500, 0.124442
 113, 2.333333, 0.135000
 114, 2.354167, 0.144789
 115, 2.375000, 0.153640
 116, 2.395833, 0.161402
 117, 2.416667, 0.167942
 118, 2.437500, 0.173149
 119, 2.458333, 0.176933
 120, 2.479167, 0.179230
 121, 2.500000, 0.180000
 122, 2.520833, 0.179230
 123, 2.541667, 0.176933
 124, 2.562500, 0.173149
 125, 2.583333, 0.167942
 126, 2.604167, 0.161402
 127, 2.625000, 0.153640
 128, 2.645833, 0.144789
 129, 2.666667, 0.135000
 130, 2.687500, 0.124442
 131, 2.708333, 0.113294
 132, 2.729167, 0.101747
 133, 2.750000, 0.090000
 134, 2.770833, 0.078253
 135, 2.791667, 0.066706
 136, 2.812500, 0.055558
 137, 2.833333, 0.045000
 138, 2.854167, 0.035211
 139, 2.875000, 0.026360
 140, 2.895833, 0.018598
 141, 2.916667, 0.012058
 142, 2.937500, 0.006851
 143, 2.958333, 0.003067
 144, 2.979167, 0.000770
 145, 3.000000, 0.000000
 146, 0.000000, 0.041667
 147, 0.020833, 0.042437
 148, 0.041667, 0.044733
 149, 0.062500, 0.048518
 150, 0.083333, 0.053724
 151, 0.104167, 0.060265
 152, 0.125000, 0.068027
 153, 0.145833, 0.076878
 154, 0.166667, 0.086667
 155, 0.187500, 0.097225
 156, 0.208333, 0.108373
 157, 0.229167, 0.119919
 158, 0.250000, 0.131667
 159, 0.270833, 0.143414
 160, 0.291667, 0.154960
 161, 0.312500, 0.166108
 162, 0.333333, 0.176667
 163, 0.354167, 0.186455
 164, 0.375000, 0.195306
 165, 0.395833, 0.203068
 166, 0.416667, 0.209609
 167, 0.437500, 0.214816
 168, 0.458333, 0.218600
 169, 0.479167, 0.220897
 170, 0.500000, 0.221667
 171, 0.520833, 0.220897
 172, 0.541667, 0.218600
 173, 0.562500, 0.214816
 174, 0.583333, 0.209609
 175, 0.604167, 0.203068
 176, 0.625000, 0.195306
 177, 0.645833, 0.186455
 178, 0.666667, 0.176667
 179, 0.687500, 0.166108
 180, 0.708333, 0.154960
 181, 0.729167, 0.143414
 182, 0.750000, 0.131667
 183, 0.770833, 0.119919
 184, 0.791667, 0.108373
 185, 0.812500, 0.097225
 186, 0.833333, 0.086667
 187, 0.854167, 0.076878
 188, 0.875000, 0.068027
 189, 0.895833, 0.060265
 190, 0.916667, 0.053724
 191, 0.937500, 0.048518
 192, 0.958333, 0.044733
 193, 0.979167, 0.042437
 194, 1.000000, 0.041667
 195, 1.020833, 0.042437
 196, 1.041667, 0.044733
 197, 1.062500, 0.048518
 198, 1.083333, 0.053724
 199, 1.104167, 0.060265
 200, 1.125000, 0.068027
 201, 1.145833, 0.076878
 202, 1.166667, 0.086667
 203, 1.187500, 0.097225
 204, 1.208333, 0.108373
 205, 1.229167, 0.119919
 206, 1.250000, 0.131667
 207, 1.270833, 0.143414
 208, 1.291667, 0.154960
 209, 1.312500, 0.166108
 210, 1.333333, 0.176667
 211, 1.354167, 0.186455
 212, 1.375000, 0.195306
 213, 1.395833, 0.203068
 214, 1.416667, 0.209609
 215, 1.437500, 0.214816
 216, 1.458333, 0.218600
 217, 1.479167, 0.220897
 218, 1.500000, 0.221667
 219, 1.520833, 0.220897
 220, 1.541667, 0.218600
 221, 1.562500, 0.214816
 222, 1.583333, 0.209609
 223, 1.604167, 0.203068
 224, 1.625000, 0.195306
 225, 1.645833, 0.186455
 226, 1.666667, 0.176667
 227, 1.687500, 0.166108
 228, 1.708333, 0.154960
 229, 1.729167, 0.143414
 230, 1.750000, 0.131667
 231, 1.770833, 0.119919
 232, 1.791667, 0.108373
 233, 1.812500, 0.097225
 234, 1.833333, 0.086667
 235, 1.854167, 0.076878
 236, 1.875000, 0.068027
 237, 1.895833, 0.060265
 238, 1.916667, 0.053724
 239, 1.937500, 0.048518
 240, 1.958333, 0.044733
 241, 1.979167, 0.042437
 242, 2.000000, 0.041667
 243, 2.020833, 0.042437
 244, 2.041667, 0.044733
 245, 2.062500, 0.048518
 246, 2.083333, 0.053724
 247, 2.104167, 0.060265
 248, 2.125000, 0.068027
 249, 2.145833, 0.076878
 250, 2.166667, 0.086667
 251, 2.187500, 0.097225
 252, 2.208333, 0.108373
 253, 2.229167, 0.119919
 254, 2.250000, 0.131667
 255, 2.270833, 0.143414
 256, 2.291667, 0.154960
 257, 2.312500, 0.166108
 258, 2.333333, 0.176667
 259, 2.354167, 0.186455
 260, 2.375000, 0.195306
 261, 2.395833, 0.203068
 262, 2.416667, 0.209609
 263, 2.437500, 0.214816
 264, 2.458333, 0.218600
 265, 2.479167, 0.220897
 266, 2.500000, 0.221667
 267, 2.520833, 0.220897
 268, 2.541667, 0.218600
 269, 2.562500, 0.214816
 270, 2.583333, 0.209609
 271, 2.604167, 0.203068
 272, 2.625000, 0.195306
 273, 2.645833, 0.186455
 274, 2.666667, 0.176667
 275, 2.687500, 0.166108
 276, 2.708333, 0.154960
 277, 2.729167, 0.143414
 278, 2.750000, 0.131667
 279, 2.770833, 0.119919
 280, 2.791667, 0.108373
 281, 2.812500, 0.097225
 282, 2.833333, 0.086667
 283, 2.854167, 0.076878
 284, 2.875000, 0.068027
 285, 2.895833, 0.060265
 286, 2.916667, 0.053724
 287, 2.937500, 0.048518
 288, 2.958333, 0.044733
 289, 2.979167, 0.042437
 290, 3.000000, 0.041667
 291, 0.000000, 0.083333
 292, 0.020833, 0.084103
 293, 0.041667, 0.086400
 294, 0.062500, 0.090184
 295, 0.083333, 0.095391
 296, 0.104167, 0.101932
 297, 0.125000, 0.109694
 298, 0.145833, 0.118545
 299, 0.166667, 0.128333
 300, 0.187500, 0.138892
 301, 0.208333, 0.150040
 302, 0.229167, 0.161586
 303, 0.250000, 0.173333
 304, 0.270833, 0.185081
 305, 0.291667, 0.196627
 306, 0.312500, 0.207775
 307, 0.333333, 0.218333
 308, 0.354167, 0.228122
 309, 0.375000, 0.236973
 310, 0.395833, 0.244735
 311, 0.416667, 0.251276
 312, 0.437500, 0.256482
 313, 0.458333, 0.260267
 314, 0.479167, 0.262563
 315, 0.500000, 0.263333
 316, 0.520833, 0.262563
 317, 0.541667, 0.260267
 318, 0.562500, 0.256482
 319, 0.583333, 0.251276
 320, 0.604167, 0.244735
 321, 0.625000, 0.236973
 322, 0.645833, 0.228122
 323, 0.666667, 0.218333
 324, 0.687500, 0.207775
 325, 0.708333, 0.196627
 326, 0.729167, 0.185081
 327, 0.750000, 0.173333
 328, 0.770833, 0.161586
 329, 0.791667, 0.150040
 330, 0.812500, 0.138892
 331, 0.833333, 0.128333
 332, 0.854167, 0.118545
 333, 0.875000, 0.109694
 334, 0.895833, 0.101932
 335, 0.916667, 0.095391
 336, 0.937500, 0.090184
 337, 0.958333, 0.086400
 338, 0.979167, 0.084103
 339, 1.000000, 0.083333
 340, 1.020833, 0.084103
 341, 1.041667, 0.086400
 342, 1.062500, 0.090184
 343, 1.083333, 0.095391
 344, 1.104167, 0.101932
 345, 1.125000, 0.109694
 346, 1.145833, 0.118545
 347, 1.166667, 0.128333
 348, 1.187500, 0.138892
 349, 1.208333, 0.150040
 350, 1.229167, 0.161586
 351, 1.250000, 0.173333
 352, 1.270833, 0.185081
 353, 1.291667, 0.196627
 354, 1.312500, 0.207775
 355, 1.333333, 0.218333
 356, 1.354167, 0.228122
 357, 1.375000, 0.236973
 358, 1.395833, 0.244735
 359, 1.416667, 0.251276
 360, 1.437500, 0.256482
 361, 1.458333, 0.260267
 362, 1.479167, 0.262563
 363, 1.500000, 0.263333
 364, 1.520833, 0.262563
 365, 1.541667, 0.260267
 366, 1.562500, 0.256482
 367, 1.583333, 0.251276
 368, 1.604167, 0.244735
 369, 1.625000, 0.236973
 370, 1.645833, 0.228122
 371, 1.666667, 0.218333
 372, 1.687500, 0.207775
 373, 1.708333, 0.196627
 374, 1.729167, 0.185081
 375, 1.750000, 0.173333
 376, 1.770833, 0.161586
 377, 1.791667, 0.150040
 378, 1.812500, 0.138892
 379, 1.833333, 0.128333
 380, 1.854167, 0.118545
 381, 1.875000, 0.109694
 382, 1.895833, 0.101932
 383, 1.916667, 0.095391
 384, 1.937500, 0.090184
 385, 1.958333, 0.086400
 386, 1.979167, 0.084103
 387, 2.000000, 0.083333
 388, 2.020833, 0.084103
 389, 2.041667, 0.086400
 390, 2.062500, 0.090184
 391, 2.083333, 0.095391
 392, 2.104167, 0.101932
 393, 2.125000, 0.109694
 394, 2.145833, 0.118545
 395, 2.166667, 0.128333
 396, 2.187500, 0.138892
 397, 2.208333, 0.150040
 398, 2.229167, 0.161586
 399, 2.250000, 0.173333
 400, 2.270833, 0.185081
 401, 2.291667, 0.196627
 402, 2.312500, 0.207775
 403, 2.333333, 0.218333
 404, 2.354167, 0.228122
 405, 2.375000, 0.236973
 406, 2.395833, 0.244735
 407, 2.416667, 0.251276
 408, 2.437500, 0.256482
 409, 2.458333, 0.260267
 410, 2.479167, 0.262563
 411, 2.500000, 0.263333
 412, 2.520833, 0.262563
 413, 2.541667, 0.260267
 414, 2.562500, 0.256482
 415, 2.583333, 0.251276
 416, 2.604167, 0.244735
 417, 2.625000, 0.236973
 418, 2.645833, 0.228122
 419, 2.666667, 0.218333
 420, 2.687500, 0.207775
 421, 2.708333, 0.196627
 422, 2.729167, 0.185081
 423, 2.750000, 0.173333
 424, 2.770833, 0.161586
 425, 2.791667, 0.150040
 426, 2.812500, 0.138892
 427, 2.833333, 0.128333
 428, 2.854167, 0.118545
 429, 2.875000, 0.109694
 430, 2.895833, 0.101932
 431, 2.916667, 0.095391
 432, 2.937500, 0.090184
 433, 2.958333, 0.086400
 434, 2.979167, 0.084103
 435, 3.000000, 0.083333
 436, 0.000000, 0.125000
 437, 0.020833, 0.125770
 438, 0.041667, 0.128067
 439, 0.062500, 0.131851
 440, 0.083333, 0.137058
 441, 0.104167, 0.143598
 442, 0.125000, 0.151360
 443, 0.145833, 0.160211
 444, 0.166667, 0.170000
 445, 0.187500, 0.180558
 446, 0.208333, 0.191706
 447, 0.229167, 0.203253
 448, 0.250000, 0.215000
 449, 0.270833, 0.226747
 450, 0.291667, 0.238294
 451, 0.312500, 0.249442
 452, 0.333333, 0.260000
 453, 0.354167, 0.269789
 454, 0.375000, 0.278640
 455, 0.395833, 0.286402
 456, 0.416667, 0.292942
 457, 0.437500, 0.298149
 458, 0.458333, 0.301933
 459, 0.479167, 0.304230
 460, 0.500000, 0.305000
 461, 0.520833, 0.304230
 462, 0.541667, 0.301933
 463, 0.562500, 0.298149
 464, 0.583333, 0.292942
 465, 0.604167, 0.286402
 466, 0.625000, 0.278640
 467, 0.645833, 0.269789
 468, 0.666667, 0.260000
 469, 0.687500, 0.249442
 470, 0.708333, 0.238294
 471, 0.729167, 0.226747
 472, 0.750000, 0.215000
 473, 0.770833, 0.203253
 474, 0.791667, 0.191706
 475, 0.812500, 0.180558
 476, 0.833333, 0.170000
 477, 0.854167, 0.160211
 478, 0.875000, 0.151360
 479, 0.895833, 0.143598
 480, 0.916667, 0.137058
 481, 0.937500, 0.131851
 482, 0.958333, 0.128067
 483, 0.979167, 0.125770
 484, 1.000000, 0.125000
 485, 1.020833, 0.125770
 486, 1.041667, 0.128067
 487, 1.062500, 0.131851
 488, 1.083333, 0.137058
 489, 1.104167, 0.143598
 490, 1.125000, 0.151360
 491, 1.145833, 0.160211
 492, 1.166667, 0.170000
 493, 1.187500, 0.180558
 494, 1.208333, 0.191706
 495, 1.229167, 0.203253
 496, 1.250000, 0.215000
 497, 1.270833, 0.226747
 498, 1.291667, 0.238294
 499, 1.312500, 0.249442
 500, 1.333333, 0.260000
 501, 1.354167, 0.269789
 502, 1.375000, 0.278640
 503, 1.395833, 0.286402
 504, 1.416667, 0.292942
 505, 1.437500, 0.298149
 506, 1.458333, 0.301933
 507, 1.479167, 0.304230
 508, 1.500000, 0.305000
 509, 1.520833, 0.304230
 510, 1.541667, 0.301933
 511, 1.562500, 0.298149
 512, 1.583333, 0.292942
 513, 1.604167, 0.286402
 514, 1.625000, 0.278640
 515, 1.645833, 0.269789
 516, 1.666667, 0.260000
 517, 1.687500, 0.249442
 518, 1.708333, 0.238294
 519, 1.729167, 0.226747
 520, 1.750000, 0.215000
 521, 1.770833, 0.203253
 522, 1.791667, 0.191706
 523, 1.812500, 0.180558
 524, 1.833333, 0.170000
 525, 1.854167, 0.160211
 526, 1.875000, 0.151360
 527, 1.895833, 0.143598
 528, 1.916667, 0.137058
 529, 1.937500, 0.131851
 530, 1.958333, 0.128067
 531, 1.979167, 0.125770
 532, 2.000000, 0.125000
 533, 2.020833, 0.125770
 534, 2.041667, 0.128067
 535, 2.062500, 0.131851
 536, 2.083333, 0.137058
 537, 2.104167, 0.143598
 538, 2.125000, 0.151360
 539, 2.145833, 0.160211
 540, 2.166667, 0.170000
 541, 2.187500, 0.180558
 542, 2.208333, 0.191706
 543, 2.229167, 0.203253
 544, 2.250000, 0.215000
 545, 2.270833, 0.226747
 546, 2.291667, 0.238294
 547, 2.312500, 0.249442
 548, 2.333333, 0.260000
 549, 2.354167, 0.269789
 550, 2.375000, 0.278640
 551, 2.395833, 0.286402
 552, 2.416667, 0.292942
 553, 2.437500, 0.298149
 554, 2.458333, 0.301933
 555, 2.479167, 0.304230
 556, 2.500000, 0.305000
 557, 2.520833, 0.304230
 558, 2.541667, 0.301933
 559, 2.562500, 0.298149
 560, 2.583333, 0.292942
 561, 2.604167, 0.286402
 562, 2.625000, 0.278640
 563, 2.645833, 0.269789
 564, 2.666667, 0.260000
 565, 2.687500, 0.249442
 566, 2.708333, 0.238294
 567, 2.729167, 0.226747
 568, 2.750000, 0.215000
 569, 2.770833, 0.203253
 570, 2.791667, 0.191706
 571, 2.812500, 0.180558
 572, 2.833333, 0.170000
 573, 2.854167, 0.160211
 574, 2.875000, 0.151360
 575, 2.895833, 0.143598
 576, 2.916667, 0.137058
 577, 2.937500, 0.131851
 578, 2.958333, 0.128067
 579, 2.979167, 0.125770
 580, 3.000000, 0.125000
 581, 0.000000, 0.166667
 582, 0.020833, 0.167437
 583, 0.041667, 0.169733
 584, 0.062500, 0.173518
 585, 0.083333, 0.178724
 586, 0.104167, 0.185265
 587, 0.125000, 0.193027
 588, 0.145833, 0.201878
 589, 0.166667, 0.211667
 590, 0.187500, 0.222225
 591, 0.208333, 0.233373
 592, 0.229167, 0.244919
 593, 0.250000, 0.256667
 594, 0.270833, 0.268414
 595, 0.291667, 0.279960
 596, 0.312500, 0.291108
 597, 0.333333, 0.301667
 598, 0.354167, 0.311455
 599, 0.375000, 0.320306
 600, 0.395833, 0.328068
 601, 0.416667, 0.334609
 602, 0.437500, 0.339816
 603, 0.458333, 0.343600
 604, 0.479167, 0.345897
 605, 0.500000, 0.346667
 606, 0.520833, 0.345897
 607, 0.541667, 0.343600
 608, 0.562500, 0.339816
 609, 0.583333, 0.334609
 610, 0.604167, 0.328068
 611, 0.625000, 0.320306
 612, 0.645833, 0.311455
 613, 0.666667, 0.301667
 614, 0.687500, 0.291108
 615, 0.708333, 0.279960
 616, 0.729167, 0.268414
 617, 0.750000, 0.256667
 618, 0.770833, 0.244919
 619, 0.791667, 0.233373
 620, 0.812500, 0.222225
 621, 0.833333, 0.211667
 622, 0.854167, 0.201878
 623, 0.875000, 0.193027
 624, 0.895833, 0.185265
 625, 0.916667, 0.178724
 626, 0.937500, 0.173518
 627, 0.958333, 0.169733
 628, 0.979167, 0.167437
 629, 1.000000, 0.166667
 630, 1.020833, 0.167437
 631, 1.041667, 0.169733
 632, 1.062500, 0.173518
 633, 1.083333, 0.178724
 634, 1.104167, 0.185265
 635, 1.125000, 0.193027
 636, 1.145833, 0.201878
 637, 1.166667, 0.211667
 638, 1.187500, 0.222225
 639, 1.208333, 0.233373
 640, 1.229167, 0.244919
 641, 1.250000, 0.256667
 642, 1.270833, 0.268414
 643, 1.291667, 0.279960
 644, 1.312500, 0.291108
 645, 1.333333, 0.301667
 646, 1.354167, 0.311455
 647, 1.375000, 0.320306
 648, 1.395833, 0.328068
 649, 1.416667, 0.334609
 650, 1.437500, 0.339816
 651, 1.458333, 0.343600
 652, 1.479167, 0.345897
 653, 1.500000, 0.346667
 654, 1.520833, 0.345897
 655, 1.541667, 0.343600
 656, 1.562500, 0.339816
 657, 1.583333, 0.334609
 658, 1.604167, 0.328068
 659, 1.625000, 0.320306
 660, 1.645833, 0.311455
 661, 1.666667, 0.301667
 662, 1.687500, 0.291108
 663, 1.708333, 0.279960
 664, 1.729167, 0.268414
 665, 1.750000, 0.256667
 666, 1.770833, 0.244919
 667, 1.791667, 0.233373
 668, 1.812500, 0.222225
 669, 1.833333, 0.211667
 670, 1.854167, 0.201878
 671, 1.875000, 0.193027
 672, 1.895833, 0.185265
 673, 1.916667, 0.178724
 674, 1.937500, 0.173518
 675, 1.958333, 0.169733
 676, 1.979167, 0.167437
 677, 2.000000, 0.166667
 678, 2.020833, 0.167437
 679, 2.041667, 0.169733
 680, 2.062500, 0.173518
 681, 2.083333, 0.178724
 682, 2.104167, 0.185265
 683, 2.125000, 0.193027
 684, 2.145833, 0.201878
 685, 2.166667, 0.211667
 686, 2.187500, 0.222225
 687, 2.208333, 0.233373
 688, 2.229167, 0.244919
 689, 2.250000, 0.256667
 690, 2.270833, 0.268414
 691, 2.291667, 0.279960
 692, 2.312500, 0.291108
 693, 2.333333, 0.301667
 694, 2.354167, 0.311455
 695, 2.375000, 0.320306
 696, 2.395833, 0.328068
 697, 2.416667, 0.334609
 698, 2.437500, 0.339816
 699, 2.458333, 0.343600
 700, 2.479167, 0.345897
 701, 2.500000, 0.346667
 702, 2.520833, 0.345897
 703, 2.541667, 0.343600
 704, 2.562500, 0.339816
 705, 2.583333, 0.334609
 706, 2.604167, 0.328068
 707, 2.625000, 0.320306
 708, 2.645833, 0.311455
 709, 2.666667, 0.301667
 710, 2.687500, 0.291108
 711, 2.708333, 0.279960
 712, 2.729167, 0.268414
 713, 2.750000, 0.256667
 714, 2.770833, 0.244919
 715, 2.791667, 0.233373
 716, 2.812500, 0.222225
 717, 2.833333, 0.211667
 718, 2.854167, 0.201878
 719, 2.875000, 0.193027
 720, 2.895833, 0.185265
 721, 2.916667, 0.178724
 722, 2.937500, 0.173518
 723, 2.958333, 0.169733
 724, 2.979167, 0.167437
 725, 3.000000, 0.166667
 726, 0.000000, 0.208333
 727, 0.020833, 0.209103
 728, 0.041667, 0.211400
 729, 0.062500, 0.215184
 730, 0.083333, 0.220391
 731, 0.104167, 0.226932
 732, 0.125000, 0.234694
 733, 0.145833, 0.243545
 734, 0.166667, 0.253333
 735, 0.187500, 0.263892
 736, 0.208333, 0.275040
 737, 0.229167, 0.286586
 738, 0.250000, 0.298333
 739, 0.270833, 0.310081
 740, 0.291667, 0.321627
 741, 0.312500, 0.332775
 742, 0.333333, 0.343333
 743, 0.354167, 0.353122
 744, 0.375000, 0.361973
 745, 0.395833, 0.369735
 746, 0.416667, 0.376276
 747, 0.437500, 0.381482
 748, 0.458333, 0.385267
 749, 0.479167, 0.387563
 750, 0.500000, 0.388333
 751, 0.520833, 0.387563
 752, 0.541667, 0.385267
 753, 0.562500, 0.381482
 754, 0.583333, 0.376276
 755, 0.604167, 0.369735
 756, 0.625000, 0.361973
 757, 0.645833, 0.353122
 758, 0.666667, 0.343333
 759, 0.687500, 0.332775
 760, 0.708333, 0.321627
 761, 0.729167, 0.310081
 762, 0.750000, 0.298333
 763, 0.770833, 0.286586
 764, 0.791667, 0.275040
 765, 0.812500, 0.263892
 766, 0.833333, 0.253333
 767, 0.854167, 0.243545
 768, 0.875000, 0.234694
 769, 0.895833, 0.226932
 770, 0.916667, 0.220391
 771, 0.937500, 0.215184
 772, 0.958333, 0.211400
 773, 0.979167, 0.209103
 774, 1.000000, 0.208333
 775, 1.020833, 0.209103
 776, 1.041667, 0.211400
 777, 1.062500, 0.215184
 778, 1.083333, 0.220391
 779, 1.104167, 0.226932
 780, 1.125000, 0.234694
 781, 1.145833, 0.243545
 782, 1.166667, 0.253333
 783, 1.187500, 0.263892
 784, 1.208333, 0.275040
 785, 1.229167, 0.286586
 786, 1.250000, 0.298333
 787, 1.270833, 0.310081
 788, 1.291667, 0.321627
 789, 1.312500, 0.332775
 790, 1.333333, 0.343333
 791, 1.354167, 0.353122
 792, 1.375000, 0.361973
 793, 1.395833, 0.369735
 794, 1.416667, 0.376276
 795, 1.437500, 0.381482
 796, 1.458333, 0.385267
 797, 1.479167, 0.387563
 798, 1.500000, 0.388333
 799, 1.520833, 0.387563
 800, 1.541667, 0.385267
 801, 1.562500, 0.381482
 802, 1.583333, 0.376276
 803, 1.604167, 0.369735
 804, 1.625000, 0.361973
 805, 1.645833, 0.353122
 806, 1.666667, 0.343333
 807, 1.687500, 0.332775
 808, 1.708333, 0.321627
 809, 1.729167, 0.310081
 810, 1.750000, 0.298333
 811, 1.770833, 0.286586
 812, 1.791667, 0.275040
 813, 1.812500, 0.263892
 814, 1.833333, 0.253333
 815, 1.854167, 0.243545
 816, 1.875000, 0.234694
 817, 1.895833, 0.226932
 818, 1.916667, 0.220391
 819, 1.937500, 0.215184
 820, 1.958333, 0.211400
 821, 1.979167, 0.209103
 822, 2.000000, 0.208333
 823, 2.020833, 0.209103
 824, 2.041667, 0.211400
 825, 2.062500, 0.215184
 826, 2.083333, 0.220391
 827, 2.104167, 0.226932
 828, 2.125000, 0.234694
 829, 2.145833, 0.243545
 830, 2.166667, 0.253333
 831, 2.187500, 0.263892
 832, 2.208333, 0.275040
 833, 2.229167, 0.286586
 834, 2.250000, 0.298333
 835, 2.270833, 0.310081
 836, 2.291667, 0.321627
 837, 2.312500, 0.332775
 838, 2.333333, 0.343333
 839, 2.354167, 0.353122
 840, 2.375000, 0.361973
 841, 2.395833, 0.369735
 842, 2.416667, 0.376276
 843, 2.437500, 0.381482
 844, 2.458333, 0.385267
 845, 2.479167, 0.387563
 846, 2.500000, 0.388333
 847, 2.520833, 0.387563
 848, 2.541667, 0.385267
 849, 2.562500, 0.381482
 850, 2.583333, 0.376276
 851, 2.604167, 0.369735
 852, 2.625000, 0.361973
 853, 2.645833, 0.353122
 854, 2.666667, 0.343333
 855, 2.687500, 0.332775
 856, 2.708333, 0.321627
 857, 2.729167, 0.310081
 858, 2.750000, 0.298333
 859, 2.770833, 0.286586
 860, 2.791667, 0.275040
 861, 2.812500, 0.263892
 862, 2.833333, 0.253333
 863, 2.854167, 0.243545
 864, 2.875000, 0.234694
 865, 2.895833, 0.226932
 866, 2.916667, 0.220391
 867, 2.937500, 0.215184
 868, 2.958333, 0.211400
 869, 2.979167, 0.209103
 870, 3.000000, 0.208333
 871, 0.000000, 0.250000
 872, 0.020833, 0.250770
 873, 0.041667, 0.253067
 874, 0.062500, 0.256851
 875, 0.083333, 0.262058
 876, 0.104167, 0.268598
 877, 0.125000, 0.276360
 878, 0.145833, 0.285211
 879, 0.166667, 0.295000
 880, 0.187500, 0.305558
 881, 0.208333, 0.316706
 882, 0.229167, 0.328253
 883, 0.250000, 0.340000
 884, 0.270833, 0.351747
 885, 0.291667, 0.363294
 886, 0.312500, 0.374442
 887, 0.333333, 0.385000
 888, 0.354167, 0.394789
 889, 0.375000, 0.403640
 890, 0.395833, 0.411402
 891, 0.416667, 0.417942
 892, 0.437500, 0.423149
 893, 0.458333, 0.426933
 894, 0.479167, 0.429230
 895, 0.500000, 0.430000
 896, 0.520833, 0.429230
 897, 0.541667, 0.426933
 898, 0.562500, 0.423149
 899, 0.583333, 0.417942
 900, 0.604167, 0.411402
 901, 0.625000, 0.403640
 902, 0.645833, 0.394789
 903, 0.666667, 0.385000
 904, 0.687500, 0.374442
 905, 0.708333, 0.363294
 906, 0.729167, 0.351747
 907, 0.750000, 0.340000
 908, 0.770833, 0.328253
 909, 0.791667, 0.316706
 910, 0.812500, 0.305558
 911, 0.833333, 0.295000
 912, 0.854167, 0.285211
 913, 0.875000, 0.276360
 914, 0.895833, 0.268598
 915, 0.916667, 0.262058
 916, 0.937500, 0.256851
 917, 0.958333, 0.253067
 918, 0.979167, 0.250770
 919, 1.000000, 0.250000
 920, 1.020833, 0.250770
 921, 1.041667, 0.253067
 922, 1.062500, 0.256851
 923, 1.083333, 0.262058
 924, 1.104167, 0.268598
 925, 1.125000, 0.276360
 926, 1.145833, 0.285211
 927, 1.166667, 0.295000
 928, 1.187500, 0.305558
 929, 1.208333, 0.316706
 930, 1.229167, 0.328253
 931, 1.250000, 0.340000
 932, 1.270833, 0.351747
 933, 1.291667, 0.363294
 934, 1.312500, 0.374442
 935, 1.333333, 0.385000
 936, 1.354167, 0.394789
 937, 1.375000, 0.403640
 938, 1.395833, 0.411402
 939, 1.416667, 0.417942
 940, 1.437500, 0.423149
 941, 1.458333, 0.426933
 942, 1.479167, 0.429230
 943, 1.500000, 0.430000
 944, 1.520833, 0.429230
 945, 1.541667, 0.426933
 946, 1.562500, 0.423149
 947, 1.583333, 0.417942
 948, 1.604167, 0.411402
 949, 1.625000, 0.403640
 950, 1.645833, 0.394789
 951, 1.666667, 0.385000
 952, 1.687500, 0.374442
 953, 1.708333, 0.363294
 954, 1.729167, 0.351747
 955, 1.750000, 0.340000
 956, 1.770833, 0.328253
 957, 1.791667, 0.316706
 958, 1.812500, 0.305558
 959, 1.833333, 0.295000
 960, 1.854167, 0.285211
 961, 1.875000, 0.276360
 962, 1.895833, 0.268598
 963, 1.916667, 0.262058
 964, 1.937500, 0.256851
 965, 1.958333, 0.253067
 966, 1.979167, 0.250770
 967, 2.000000, 0.250000
 968, 2.020833, 0.250770
 969, 2.041667, 0.253067
 970, 2.062500, 0.256851
 971, 2.083333, 0.262058
 972, 2.104167, 0.268598
 973, 2.125000, 0.276360
 974, 2.145833, 0.285211
 975, 2.166667, 0.295000
 976, 2.187500, 0.305558
 977, 2.208333, 0.316706
 978, 2.229167, 0.328253
 979, 2.250000, 0.340000
 980, 2.270833, 0.351747
 981, 2.291667, 0.363294
 982, 2.312500, 0.374442
 983, 2.333333, 0.385000
 984, 2.354167, 0.394789
 985, 2.375000, 0.403640
 986, 2.395833, 0.411402
 987, 2.416667, 0.417942
 988, 2.437500, 0.423149
 989, 2.458333, 0.426933
 990, 2.479167, 0.429230
 991, 2.500000, 0.430000
 992, 2.520833, 0.429230
 993, 2.541667, 0.426933
 994, 2.562500, 0.423149
 995, 2.583333, 0.417942
 996, 2.604167, 0.411402
 997, 2.625000, 0.403640
 998, 2.645833, 0.394789
 999, 2.666667, 0.385000
 1000, 2.687500, 0.374442
 1001, 2.708333, 0.363294
 1002, 2.729167, 0.351747
 1003, 2.750000, 0.340000
 1004, 2.770833, 0.328253
 1005, 2.791667, 0.316706
 1006, 2.812500, 0.305558
 1007, 2.833333, 0.295000
 1008, 2.854167, 0.285211
 1009, 2.875000, 0.276360
 1010, 2.895833, 0.268598
 1011, 2.916667, 0.262058
 1012, 2.937500, 0.256851
 1013, 2.958333, 0.253067
 1014, 2.979167, 0.250770
 1015, 3.000000, 0.250000
 1016, 0.000000, 0.291667
 1017, 0.020833, 0.292437
 1018, 0.041667, 0.294733
 1019, 0.062500, 0.298518
 1020, 0.083333, 0.303724
 1021, 0.104167, 0.310265
 1022, 0.125000, 0.318027
 1023, 0.145833, 0.326878
 1024, 0.166667, 0.336667
 1025, 0.187500, 0.347225
 1026, 0.208333, 0.358373
 1027, 0.229167, 0.369919
 1028, 0.250000, 0.381667
 1029, 0.270833, 0.393414
 1030, 0.291667, 0.404960
 1031, 0.312500, 0.416108
 1032, 0.333333, 0.426667
 1033, 0.354167, 0.436455
 1034, 0.375000, 0.445306
 1035, 0.395833, 0.453068
 1036, 0.416667, 0.459609
 1037, 0.437500, 0.464816
 1038, 0.458333, 0.468600
 1039, 0.479167, 0.470897
 1040, 0.500000, 0.471667
 1041, 0.520833, 0.470897
 1042, 0.541667, 0.468600
 1043, 0.562500, 0.464816
 1044, 0.583333, 0.459609
 1045, 0.604167, 0.453068
 1046, 0.625000, 0.445306
 1047, 0.645833, 0.436455
 1048, 0.666667, 0.426667
 1049, 0.687500, 0.416108
 1050, 0.708333, 0.404960
 1051, 0.729167, 0.393414
 1052, 0.750000, 0.381667
 1053, 0.770833, 0.369919
 1054, 0.791667, 0.358373
 1055, 0.812500, 0.347225
 1056, 0.833333, 0.336667
 1057, 0.854167, 0.326878
 1058, 0.875000, 0.318027
 1059, 0.895833, 0.310265
 1060, 0.916667, 0.303724
 1061, 0.937500, 0.298518
 1062, 0.958333, 0.294733
 1063, 0.979167, 0.292437
 1064, 1.000000, 0.291667
 1065, 1.020833, 0.292437
 1066, 1.041667, 0.294733
 1067, 1.062500, 0.298518
 1068, 1.083333, 0.303724
 1069, 1.104167, 0.310265
 1070, 1.125000, 0.318027
 1071, 1.145833, 0.326878
 1072, 1.166667, 0.336667
 1073, 1.187500, 0.347225
 1074, 1.208333, 0.358373
 1075, 1.229167, 0.369919
 1076, 1.250000, 0.381667
 1077, 1.270833, 0.393414
 1078, 1.291667, 0.404960
 1079, 1.312500, 0.416108
 1080, 1.333333, 0.426667
 1081, 1.354167, 0.436455
 1082, 1.375000, 0.445306
 1083, 1.395833, 0.453068
 1084, 1.416667, 0.459609
 1085, 1.437500, 0.464816
 1086, 1.458333, 0.468600
 1087, 1.479167, 0.470897
 1088, 1.500000, 0.471667
 1089, 1.520833, 0.470897
 1090, 1.541667, 0.468600
 1091, 1.562500, 0.464816
 1092, 1.583333, 0.459609
 1093, 1.604167, 0.453068
 1094, 1.625000, 0.445306
 1095, 1.645833, 0.436455
 1096, 1.666667, 0.426667
 1097, 1.687500, 0.416108
 1098, 1.708333, 0.404960
 1099, 1.729167, 0.393414
 1100, 1.750000, 0.381667
 1101, 1.770833, 0.369919
 1102, 1.791667, 0.358373
 1103, 1.812500, 0.347225
 1104, 1.833333, 0.336667
 1105, 1.854167, 0.326878
 1106, 1.875000, 0.318027
 1107, 1.895833, 0.310265
 1108, 1.916667, 0.303724
 1109, 1.937500, 0.298518
 1110, 1.958333, 0.294733
 1111, 1.979167, 0.292437
 1112, 2.000000, 0.291667
 1113, 2.020833, 0.292437
 1114, 2.041667, 0.294733
 1115, 2.062500, 0.298518
 1116, 2.083333, 0.303724
 1117, 2.104167, 0.310265
 1118, 2.125000, 0.318027
 1119, 2.145833, 0.326878
 1120, 2.166667, 0.336667
 1121, 2.187500, 0.347225
 1122, 2.208333, 0.358373
 1123, 2.229167, 0.369919
 1124, 2.250000, 0.381667
 1125, 2.270833, 0.393414
 1126, 2.291667, 0.404960
 1127, 2.312500, 0.416108
 1128, 2.333333, 0.426667
 1129, 2.354167, 0.436455
 1130, 2.375000, 0.445306
 1131, 2.395833, 0.453068
 1132, 2.416667, 0.459609
 1133, 2.437500, 0.464816
 1134, 2.458333, 0.468600
 1135, 2.479167, 0.470897
 1136, 2.500000, 0.471667
 1137, 2.520833, 0.470897
 1138, 2.541667, 0.468600
 1139, 2.562500, 0.464816
 1140, 2.583333, 0.459609
 1141, 2.604167, 0.453068
 1142, 2.625000, 0.445306
 1143, 2.645833, 0.436455
 1144, 2.666667, 0.426667
 1145, 2.687500, 0.416108
 1146, 2.708333, 0.404960
 1147, 2.729167, 0.393414
 1148, 2.750000, 0.381667
 1149, 2.770833, 0.369919
 1150, 2.791667, 0.358373
 1151, 2.812500, 0.347225
 1152, 2.833333, 0.336667
 1153, 2.854167, 0.326878
 1154, 2.875000, 0.318027
 1155, 2.895833, 0.310265
 1156, 2.916667, 0.303724
 1157, 2.937500, 0.298518
 1158, 2.958333, 0.294733
 1159, 2.979167, 0.292437
 1160, 3.000000, 0.291667
 1161, 0.000000, 0.333333
 1162, 0.020833, 0.334103
 1163, 0.041667, 0.336400
 1164, 0.062500, 0.340184
 1165, 0.083333, 0.345391
 1166, 0.104167, 0.351932
 1167, 0.125000, 0.359694
 1168, 0.145833, 0.368545
 1169, 0.166667, 0.378333
 1170, 0.187500, 0.388892
 1171, 0.208333, 0.400040
 1172, 0.229167, 0.411586
 1173, 0.250000, 0.423333
 1174, 0.270833, 0.435081
 1175, 0.291667, 0.446627
 1176, 0.312500, 0.457775
 1177, 0.333333, 0.468333
 1178, 0.354167, 0.478122
 1179, 0.375000, 0.486973
 1180, 0.395833, 0.494735
 1181, 0.416667, 0.501276
 1182, 0.437500, 0.506482
 1183, 0.458333, 0.510267
 1184, 0.479167, 0.512563
 1185, 0.500000, 0.513333
 1186, 0.520833, 0.512563
 1187, 0.541667, 0.510267
 1188, 0.562500, 0.506482
 1189, 0.583333, 0.501276
 1190, 0.604167, 0.494735
 1191, 0.625000, 0.486973
 1192, 0.645833, 0.478122
 1193, 0.666667, 0.468333
 1194, 0.687500, 0.457775
 1195, 0.708333, 0.446627
 1196, 0.729167, 0.435081
 1197, 0.750000, 0.423333
 1198, 0.770833, 0.411586
 1199, 0.791667, 0.400040
 1200, 0.812500, 0.388892
 1201, 0.833333, 0.378333
 1202, 0.854167, 0.368545
 1203, 0.875000, 0.359694
 1204, 0.895833, 0.351932
 1205, 0.916667, 0.345391
 1206, 0.937500, 0.340184
 1207, 0.958333, 0.336400
 1208, 0.979167, 0.334103
 1209, 1.000000, 0.333333
 1210, 1.020833, 0.334103
 1211, 1.041667, 0.336400
 1212, 1.062500, 0.340184
 1213, 1.083333, 0.345391
 1214, 1.104167, 0.351932
 1215, 1.125000, 0.359694
 1216, 1.145833, 0.368545
 1217, 1.166667, 0.378333
 1218, 1.187500, 0.388892
 1219, 1.208333, 0.400040
 1220, 1.229167, 0.411586
 1221, 1.250000, 0.423333
 1222, 1.270833, 0.435081
 1223, 1.291667, 0.446627
 1224, 1.312500, 0.457775
 1225, 1.333333, 0.468333
 1226, 1.354167, 0.478122
 1227, 1.375000, 0.486973
 1228, 1.395833, 0.494735
 1229, 1.416667, 0.501276
 1230, 1.437500, 0.506482
 1231, 1.458333, 0.510267
 1232, 1.479167, 0.512563
 1233, 1.500000, 0.513333
 1234, 1.520833, 0.512563
 1235, 1.541667, 0.510267
 1236, 1.562500, 0.506482
 1237, 1.583333, 0.501276
 1238, 1.604167, 0.494735
 1239, 1.625000, 0.486973
 1240, 1.645833, 0.478122
 1241, 1.666667, 0.468333
 1242, 1.687500, 0.457775
 1243, 1.708333, 0.446627
 1244, 1.729167, 0.435081
 1245, 1.750000, 0.423333
 1246, 1.770833, 0.411586
 1247, 1.791667, 0.400040
 1248, 1.812500, 0.388892
 1249, 1.833333, 0.378333
 1250, 1.854167, 0.368545
 1251, 1.875000, 0.359694
 1252, 1.895833, 0.351932
 1253, 1.916667, 0.345391
 1254, 1.937500, 0.340184
 1255, 1.958333, 0.336400
 1256, 1.979167, 0.334103
 1257, 2.000000, 0.333333
 1258, 2.020833, 0.334103
 1259, 2.041667, 0.336400
 1260, 2.062500, 0.340184
 1261, 2.083333, 0.345391
 1262, 2.104167, 0.351932
 1263, 2.125000, 0.359694
 1264, 2.145833, 0.368545
 1265, 2.166667, 0.378333
 1266, 2.187500, 0.388892
 1267, 2.208333, 0.400040
 1268, 2.229167, 0.411586
 1269, 2.250000, 0.423333
 1270, 2.270833, 0.435081
 1271, 2.291667, 0.446627
 1272, 2.312500, 0.457775
 1273, 2.333333, 0.468333
 1274, 2.354167, 0.478122
 1275, 2.375000, 0.486973
 1276, 2.395833, 0.494735
 1277, 2.416667, 0.501276
 1278, 2.437500, 0.506482
 1279, 2.458333, 0.510267
 1280, 2.479167, 0.512563
 1281, 2.500000, 0.513333
 1282, 2.520833, 0.512563
 1283, 2.541667, 0.510267
 1284, 2.562500, 0.506482
 1285, 2.583333, 0.501276
 1286, 2.604167, 0.494735
 1287, 2.625000, 0.486973
 1288, 2.645833, 0.478122
 1289, 2.666667, 0.468333
 1290, 2.687500, 0.457775
 1291, 2.708333, 0.446627
 1292, 2.729167, 0.435081
 1293, 2.750000, 0.423333
 1294, 2.770833, 0.411586
 1295, 2.791667, 0.400040
 1296, 2.812500, 0.388892
 1297, 2.833333, 0.378333
 1298, 2.854167, 0.368545
 1299, 2.875000, 0.359694
 1300, 2.895833, 0.351932
 1301, 2.916667, 0.345391
 1302, 2.937500, 0.340184
 1303, 2.958333, 0.336400
 1304, 2.979167, 0.334103
 1305, 3.000000, 0.333333
 1306, 0.000000, 0.375000
 1307, 0.020833, 0.375770
 1308, 0.041667, 0.378067
 1309, 0.062500, 0.381851
 1310, 0.083333, 0.387058
 1311, 0.104167, 0.393598
 1312, 0.125000, 0.401360
 1313, 0.145833, 0.410211
 1314, 0.166667, 0.420000
 1315, 0.187500, 0.430558
 1316, 0.208333, 0.441706
 1317, 0.229167, 0.453253
 1318, 0.250000, 0.465000
 1319, 0.270833, 0.476747
 1320, 0.291667, 0.488294
 1321, 0.312500, 0.499442
 1322, 0.333333, 0.510000
 1323, 0.354167, 0.519789
 1324, 0.375000, 0.528640
 1325, 0.395833, 0.536402
 1326, 0.416667, 0.542942
 1327, 0.437500, 0.548149
 1328, 0.458333, 0.551933
 1329, 0.479167, 0.554230
 1330, 0.500000, 0.555000
 1331, 0.520833, 0.554230
 1332, 0.541667, 0.551933
 1333, 0.562500, 0.548149
 1334, 0.583333, 0.542942
 1335, 0.604167, 0.536402
 1336, 0.625000, 0.528640
 1337, 0.645833, 0.519789
 1338, 0.666667, 0.510000
 1339, 0.687500, 0.499442
 1340, 0.708333, 0.488294
 1341, 0.729167, 0.476747
 1342, 0.750000, 0.465000
 1343, 0.770833, 0.453253
 1344, 0.791667, 0.441706
 1345, 0.812500, 0.430558
 1346, 0.833333, 0.420000
 1347, 0.854167, 0.410211
 1348, 0.875000, 0.401360
 1349, 0.895833, 0.393598
 1350, 0.916667, 0.387058
 1351, 0.937500, 0.381851
 1352, 0.958333, 0.378067
 1353, 0.979167, 0.375770
 1354, 1.000000, 0.375000
 1355, 1.020833, 0.375770
 1356, 1.041667, 0.378067
 1357, 1.062500, 0.381851
 1358, 1.083333, 0.387058
 1359, 1.104167, 0.393598
 1360, 1.125000, 0.401360
 1361, 1.145833, 0.410211
 1362, 1.166667, 0.420000
 1363, 1.187500, 0.430558
 1364, 1.208333, 0.441706
 1365, 1.229167, 0.453253
 1366, 1.250000, 0.465000
 1367, 1.270833, 0.476747
 1368, 1.291667, 0.488294
 1369, 1.312500, 0.499442
 1370, 1.333333, 0.510000
 1371, 1.354167, 0.519789
 1372, 1.375000, 0.528640
 1373, 1.395833, 0.536402
 1374, 1.416667, 0.542942
 1375, 1.437500, 0.548149
 1376, 1.458333, 0.551933
 1377, 1.479167, 0.554230
 1378, 1.500000, 0.555000
 1379, 1.520833, 0.554230
 1380, 1.541667, 0.551933
 1381, 1.562500, 0.548149
 1382, 1.583333, 0.542942
 1383, 1.604167, 0.536402
 1384, 1.625000, 0.528640
 1385, 1.645833, 0.519789
 1386, 1.666667, 0.510000
 1387, 1.687500, 0.499442
 1388, 1.708333, 0.488294
 1389, 1.729167, 0.476747
 1390, 1.750000, 0.465000
 1391, 1.770833, 0.453253
 1392, 1.791667, 0.441706
 1393, 1.812500, 0.430558
 1394, 1.833333, 0.420000
 1395, 1.854167, 0.410211
 1396, 1.875000, 0.401360
 1397, 1.895833, 0.393598
 1398, 1.916667, 0.387058
 1399, 1.937500, 0.381851
 1400, 1.958333, 0.378067
 1401, 1.979167, 0.375770
 1402, 2.000000, 0.375000
 1403, 2.020833, 0.375770
 1404, 2.041667, 0.378067
 1405, 2.062500, 0.381851
 1406, 2.083333, 0.387058
 1407, 2.104167, 0.393598
 1408, 2.125000, 0.401360
 1409, 2.145833, 0.410211
 1410, 2.166667, 0.420000
 1411, 2.187500, 0.430558
 1412, 2.208333, 0.441706
 1413, 2.229167, 0.453253
 1414, 2.250000, 0.465000
 1415, 2.270833, 0.476747
 1416, 2.291667, 0.488294
 1417, 2.312500, 0.499442
 1418, 2.333333, 0.510000
 1419, 2.354167, 0.519789
 1420, 2.375000, 0.528640
 1421, 2.395833, 0.536402
 1422, 2.416667, 0.542942
 1423, 2.437500, 0.548149
 1424, 2.458333, 0.551933
 1425, 2.479167, 0.554230
 1426, 2.500000, 0.555000
 1427, 2.520833, 0.554230
 1428, 2.541667, 0.551933
 1429, 2.562500, 0.548149
 1430, 2.583333, 0.542942
 1431, 2.604167, 0.536402
 1432, 2.625000, 0.528640
 1433, 2.645833, 0.519789
 1434, 2.666667, 0.510000
 1435, 2.687500, 0.499442
 1436, 2.708333, 0.488294
 1437, 2.729167, 0.476747
 1438, 2.750000, 0.465000
 1439, 2.770833, 0.453253
 1440, 2.791667, 0.441706
 1441, 2.812500, 0.430558
 1442, 2.833333, 0.420000
 1443, 2.854167, 0.410211
 1444, 2.875000, 0.401360
 1445, 2.895833, 0.393598
 1446, 2.916667, 0.387058
 1447, 2.937500, 0.381851
 1448, 2.958333, 0.378067
 1449, 2.979167, 0.375770
 1450, 3.000000, 0.375000
 1451, 0.000000, 0.416667
 1452, 0.020833, 0.417437
 1453, 0.041667, 0.419733
 1454, 0.062500, 0.423518
 1455, 0.083333, 0.428724
 1456, 0.104167, 0.435265
 1457, 0.125000, 0.443027
 1458, 0.145833, 0.451878
 1459, 0.166667, 0.461667
 1460, 0.187500, 0.472225
 1461, 0.208333, 0.483373
 1462, 0.229167, 0.494919
 1463, 0.250000, 0.506667
 1464, 0.270833, 0.518414
 1465, 0.291667, 0.529960
 1466, 0.312500, 0.541108
 1467, 0.333333, 0.551667
 1468, 0.354167, 0.561455
 1469, 0.375000, 0.570306
 1470, 0.395833, 0.578068
 1471, 0.416667, 0.584609
 1472, 0.437500, 0.589816
 1473, 0.458333, 0.593600
 1474, 0.479167, 0.595897
 1475, 0.500000, 0.596667
 1476, 0.520833, 0.595897
 1477, 0.541667, 0.593600
 1478, 0.562500, 0.589816
 1479, 0.583333, 0.584609
 1480, 0.604167, 0.578068
 1481, 0.625000, 0.570306
 1482, 0.645833, 0.561455
 1483, 0.666667, 0.551667
 1484, 0.687500, 0.541108
 1485, 0.708333, 0.529960
 1486, 0.729167, 0.518414
 1487, 0.750000, 0.506667
 1488, 0.770833, 0.494919
 1489, 0.791667, 0.483373
 1490, 0.812500, 0.472225
 1491, 0.833333, 0.461667
 1492, 0.854167, 0.451878
 1493, 0.875000, 0.443027
 1494, 0.895833, 0.435265
 1495, 0.916667, 0.428724
 1496, 0.937500, 0.423518
 1497, 0.958333, 0.419733
 1498, 0.979167, 0.417437
 1499, 1.000000, 0.416667
 1500, 1.020833, 0.417437
 1501, 1.041667, 0.419733
 1502, 1.062500, 0.423518
 1503, 1.083333, 0.428724
 1504, 1.104167, 0.435265
 1505, 1.125000, 0.443027
 1506, 1.145833, 0.451878
 1507, 1.166667, 0.461667
 1508, 1.187500, 0.472225
 1509, 1.208333, 0.483373
 1510, 1.229167, 0.494919
 1511, 1.250000, 0.506667
 1512, 1.270833, 0.518414
 1513, 1.291667, 0.529960
 1514, 1.312500, 0.541108
 1515, 1.333333, 0.551667
 1516, 1.354167, 0.561455
 1517, 1.375000, 0.570306
 1518, 1.395833, 0.578068
 1519, 1.416667, 0.584609
 1520, 1.437500, 0.589816
 1521, 1.458333, 0.593600
 1522, 1.479167, 0.595897
 1523, 1.500000, 0.596667
 1524, 1.520833, 0.595897
 1525, 1.541667, 0.593600
 1526, 1.562500, 0.589816
 1527, 1.583333, 0.584609
 1528, 1.604167, 0.578068
 1529, 1.625000, 0.570306
 1530, 1.645833, 0.561455
 1531, 1.666667, 0.551667
 1532, 1.687500, 0.541108
 1533, 1.708333, 0.529960
 1534, 1.729167, 0.518414
 1535, 1.750000, 0.506667
 1536, 1.770833, 0.494919
 1537, 1.791667, 0.483373
 1538, 1.812500, 0.472225
 1539, 1.833333, 0.461667
 1540, 1.854167, 0.451878
 1541, 1.875000, 0.443027
 1542, 1.895833, 0.435265
 1543, 1.916667, 0.428724
 1544, 1.937500, 0.423518
 1545, 1.958333, 0.419733
 1546, 1.979167, 0.417437
 1547, 2.000000, 0.416667
 1548, 2.020833, 0.417437
 1549, 2.041667, 0.419733
 1550, 2.062500, 0.423518
 1551, 2.083333, 0.428724
 1552, 2.104167, 0.435265
 1553, 2.125000, 0.443027
 1554, 2.145833, 0.451878
 1555, 2.166667, 0.461667
 1556, 2.187500, 0.472225
 1557, 2.208333, 0.483373
 1558, 2.229167, 0.494919
 1559, 2.250000, 0.506667
 1560, 2.270833, 0.518414
 1561, 2.291667, 0.529960
 1562, 2.312500, 0.541108
 1563, 2.333333, 0.551667
 1564, 2.354167, 0.561455
 1565, 2.375000, 0.570306
 1566, 2.395833, 0.578068
 1567, 2.416667, 0.584609
 1568, 2.437500, 0.589816
 1569, 2.458333, 0.593600
 1570, 2.479167, 0.595897
 1571, 2.500000, 0.596667
 1572, 2.520833, 0.595897
 1573, 2.541667, 0.593600
 1574, 2.562500, 0.589816
 1575, 2.583333, 0.584609
 1576, 2.604167, 0.578068
 1577, 2.625000, 0.570306
 1578, 2.645833, 0.561455
 1579, 2.666667, 0.551667
 1580, 2.687500, 0.541108
 1581, 2.708333, 0.529960
 1582, 2.729167, 0.518414
 1583, 2.750000, 0.506667
 1584, 2.770833, 0.494919
 1585, 2.791667, 0.483373
 1586, 2.812500, 0.472225
 1587, 2.833333, 0.461667
 1588, 2.854167, 0.451878
 1589, 2.875000, 0.443027
 1590, 2.895833, 0.435265
 1591, 2.916667, 0.428724
 1592, 2.937500, 0.423518
 1593, 2.958333, 0.419733
 1594, 2.979167, 0.417437
 1595, 3.000000, 0.416667
 1596, 0.000000, 0.458333
 1597, 0.020833, 0.459103
 1598, 0.041667, 0.461400
 1599, 0.062500, 0.465184
 1600, 0.083333, 0.470391
 1601, 0.104167, 0.476932
 1602, 0.125000, 0.484694
 1603, 0.145833, 0.493545
 1604, 0.166667, 0.503333
 1605, 0.187500, 0.513892
 1606, 0.208333, 0.525040
 1607, 0.229167, 0.536586
 1608, 0.250000, 0.548333
 1609, 0.270833, 0.560081
 1610, 0.291667, 0.571627
 1611, 0.312500, 0.582775
 1612, 0.333333, 0.593333
 1613, 0.354167, 0.603122
 1614, 0.375000, 0.611973
 1615, 0.395833, 0.619735
 1616, 0.416667, 0.626276
 1617, 0.437500, 0.631482
 1618, 0.458333, 0.635267
 1619, 0.479167, 0.637563
 1620, 0.500000, 0.638333
 1621, 0.520833, 0.637563
 1622, 0.541667, 0.635267
 1623, 0.562500, 0.631482
 1624, 0.583333, 0.626276
 1625, 0.604167, 0.619735
 1626, 0.625000, 0.611973
 1627, 0.645833, 0.603122
 1628, 0.666667, 0.593333
 1629, 0.687500, 0.582775
 1630, 0.708333, 0.571627
 1631, 0.729167, 0.560081
 1632, 0.750000, 0.548333
 1633, 0.770833, 0.536586
 1634, 0.791667, 0.525040
 1635, 0.812500, 0.513892
 1636, 0.833333, 0.503333
 1637, 0.854167, 0.493545
 1638, 0.875000, 0.484694
 1639, 0.895833, 0.476932
 1640, 0.916667, 0.470391
 1641, 0.937500, 0.465184
 1642, 0.958333, 0.461400
 1643, 0.979167, 0.459103
 1644, 1.000000, 0.458333
 1645, 1.020833, 0.459103
 1646, 1.041667, 0.461400
 1647, 1.062500, 0.465184
 1648, 1.083333, 0.470391
 1649, 1.104167, 0.476932
 1650, 1.125000, 0.484694
 1651, 1.145833, 0.493545
 1652, 1.166667, 0.503333
 1653, 1.187500, 0.513892
 1654, 1.208333, 0.525040
 1655, 1.229167, 0.536586
 1656, 1.250000, 0.548333
 1657, 1.270833, 0.560081
 1658, 1.291667, 0.571627
 1659, 1.312500, 0.582775
 1660, 1.333333, 0.593333
 1661, 1.354167, 0.603122
 1662, 1.375000, 0.611973
 1663, 1.395833, 0.619735
 1664, 1.416667, 0.626276
 1665, 1.437500, 0.631482
 1666, 1.458333, 0.635267
 1667, 1.479167, 0.637563
 1668, 1.500000, 0.638333
 1669, 1.520833, 0.637563
 1670, 1.541667, 0.635267
 1671, 1.562500, 0.631482
 1672, 1.583333, 0.626276
 1673, 1.604167, 0.619735
 1674, 1.625000, 0.611973
 1675, 1.645833, 0.603122
 1676, 1.666667, 0.593333
 1677, 1.687500, 0.582775
 1678, 1.708333, 0.571627
 1679, 1.729167, 0.560081
 1680, 1.750000, 0.548333
 1681, 1.770833, 0.536586
 1682, 1.791667, 0.525040
 1683, 1.812500, 0.513892
 1684, 1.833333, 0.503333
 1685, 1.854167, 0.493545
 1686, 1.875000, 0.484694
 1687, 1.895833, 0.476932
 1688, 1.916667, 0.470391
 1689, 1.937500, 0.465184
 1690, 1.958333, 0.461400
 1691, 1.979167, 0.459103
 1692, 2.000000, 0.458333
 1693, 2.020833, 0.459103
 1694, 2.041667, 0.461400
 1695, 2.062500, 0.465184
 1696, 2.083333, 0.470391
 1697, 2.104167, 0.476932
 1698, 2.125000, 0.484694
 1699, 2.145833, 0.493545
 1700, 2.166667, 0.503333
 1701, 2.187500, 0.513892
 1702, 2.208333, 0.525040
 1703, 2.229167, 0.536586
 1704, 2.250000, 0.548333
 1705, 2.270833, 0.560081
 1706, 2.291667, 0.571627
 1707, 2.312500, 0.582775
 1708, 2.333333, 0.593333
 1709, 2.354167, 0.603122
 1710, 2.375000, 0.611973
 1711, 2.395833, 0.619735
 1712, 2.416667, 0.626276
 1713, 2.437500, 0.631482
 1714, 2.458333, 0.635267
 1715, 2.479167, 0.637563
 1716, 2.500000, 0.638333
 1717, 2.520833, 0.637563
 1718, 2.541667, 0.635267
 1719, 2.562500, 0.631482
 1720, 2.583333, 0.626276
 1721, 2.604167, 0.619735
 1722, 2.625000, 0.611973
 1723, 2.645833, 0.603122
 1724, 2.666667, 0.593333
 1725, 2.687500, 0.582775
 1726, 2.708333, 0.571627
 1727, 2.729167, 0.560081
 1728, 2.750000, 0.548333
 1729, 2.770833, 0.536586
 1730, 2.791667, 0.525040
 1731, 2.812500, 0.513892
 1732, 2.833333, 0.503333
 1733, 2.854167, 0.493545
 1734, 2.875000, 0.484694
 1735, 2.895833, 0.476932
 1736, 2.916667, 0.470391
 1737, 2.937500, 0.465184
 1738, 2.958333, 0.461400
 1739, 2.979167, 0.459103
 1740, 3.000000, 0.458333
 1741, 0.000000, 0.500000
 1742, 0.020833, 0.500770
 1743, 0.041667, 0.503067
 1744, 0.062500, 0.506851
 1745, 0.083333, 0.512058
 1746, 0.104167, 0.518598
 1747, 0.125000, 0.526360
 1748, 0.145833, 0.535211
 1749, 0.166667, 0.545000
 1750, 0.187500, 0.555558
 1751, 0.208333, 0.566706
 1752, 0.229167, 0.578253
 1753, 0.250000, 0.590000
 1754, 0.270833, 0.601747
 1755, 0.291667, 0.613294
 1756, 0.312500, 0.624442
 1757, 0.333333, 0.635000
 1758, 0.354167, 0.644789
 1759, 0.375000, 0.653640
 1760, 0.395833, 0.661402
 1761, 0.416667, 0.667942
 1762, 0.437500, 0.673149
 1763, 0.458333, 0.676933
 1764, 0.479167, 0.679230
 1765, 0.500000, 0.680000
 1766, 0.520833, 0.679230
 1767, 0.541667, 0.676933
 1768, 0.562500, 0.673149
 1769, 0.583333, 0.667942
 1770, 0.604167, 0.661402
 1771, 0.625000, 0.653640
 1772, 0.645833, 0.644789
 1773, 0.666667, 0.635000
 1774, 0.687500, 0.624442
 1775, 0.708333, 0.613294
 1776, 0.729167, 0.601747
 1777, 0.750000, 0.590000
 1778, 0.770833, 0.578253
 1779, 0.791667, 0.566706
 1780, 0.812500, 0.555558
 1781, 0.833333, 0.545000
 1782, 0.854167, 0.535211
 1783, 0.875000, 0.526360
 1784, 0.895833, 0.518598
 1785, 0.916667, 0.512058
 1786, 0.937500, 0.506851
 1787, 0.958333, 0.503067
 1788, 0.979167, 0.500770
 1789, 1.000000, 0.500000
 1790, 1.020833, 0.500770
 1791, 1.041667, 0.503067
 1792, 1.062500, 0.506851
 1793, 1.083333, 0.512058
 1794, 1.104167, 0.518598
 1795, 1.125000, 0.526360
 1796, 1.145833, 0.535211
 1797, 1.166667, 0.545000
 1798, 1.187500, 0.555558
 1799, 1.208333, 0.566706
 1800, 1.229167, 0.578253
 1801, 1.250000, 0.590000
 1802, 1.270833, 0.601747
 1803, 1.291667, 0.613294
 1804, 1.312500, 0.624442
 1805, 1.333333, 0.635000
 1806, 1.354167, 0.644789
 1807, 1.375000, 0.653640
 1808, 1.395833, 0.661402
 1809, 1.416667, 0.667942
 1810, 1.437500, 0.673149
 1811, 1.458333, 0.676933
 1812, 1.479167, 0.679230
 1813, 1.500000, 0.680000
 1814, 1.520833, 0.679230
 1815, 1.541667, 0.676933
 1816, 1.562500, 0.673149
 1817, 1.583333, 0.667942
 1818, 1.604167, 0.661402
 1819, 1.625000, 0.653640
 1820, 1.645833, 0.644789
 1821, 1.666667, 0.635000
 1822, 1.687500, 0.624442
 1823, 1.708333, 0.613294
 1824, 1.729167, 0.601747
 1825, 1.750000, 0.590000
 1826, 1.770833, 0.578253
 1827, 1.791667, 0.566706
 1828, 1.812500, 0.555558
 1829, 1.833333, 0.545000
 1830, 1.854167, 0.535211
 1831, 1.875000, 0.526360
 1832, 1.895833, 0.518598
 1833, 1.916667, 0.512058
 1834, 1.937500, 0.506851
 1835, 1.958333, 0.503067
 1836, 1.979167, 0.500770
 1837, 2.000000, 0.500000
 1838, 2.020833, 0.500770
 1839, 2.041667, 0.503067
 1840, 2.062500, 0.506851
 1841, 2.083333, 0.512058
 1842, 2.104167, 0.518598
 1843, 2.125000, 0.526360
 1844, 2.145833, 0.535211
 1845, 2.166667, 0.545000
 1846, 2.187500, 0.555558
 1847, 2.208333, 0.566706
 1848, 2.229167, 0.578253
 1849, 2.250000, 0.590000
 1850, 2.270833, 0.601747
 1851, 2.291667, 0.613294
 1852, 2.312500, 0.624442
 1853, 2.333333, 0.635000
 1854, 2.354167, 0.644789
 1855, 2.375000, 0.653640
 1856, 2.395833, 0.661402
 1857, 2.416667, 0.667942
 1858, 2.437500, 0.673149
 1859, 2.458333, 0.676933
 1860, 2.479167, 0.679230
 1861, 2.500000, 0.680000
 1862, 2.520833, 0.679230
 1863, 2.541667, 0.676933
 1864, 2.562500, 0.673149
 1865, 2.583333, 0.667942
 1866, 2.604167, 0.661402
 1867, 2.625000, 0.653640
 1868, 2.645833, 0.644789
 1869, 2.666667, 0.635000
 1870, 2.687500, 0.624442
 1871, 2.708333, 0.613294
 1872, 2.729167, 0.601747
 1873, 2.750000, 0.590000
 1874, 2.770833, 0.578253
 1875, 2.791667, 0.566706
 1876, 2.812500, 0.555558
 1877, 2.833333, 0.545000
 1878, 2.854167, 0.535211
 1879, 2.875000, 0.526360
 1880, 2.895833, 0.518598
 1881, 2.916667, 0.512058
 1882, 2.937500, 0.506851
 1883, 2.958333, 0.503067
 1884, 2.979167, 0.500770
 1885, 3.000000, 0.500000
 1886, 0.000000, 0.541667
 1887, 0.020833, 0.542437
 1888, 0.041667, 0.544733
 1889, 0.062500, 0.548518
 1890, 0.083333, 0.553724
 1891, 0.104167, 0.560265
 1892, 0.125000, 0.568027
 1893, 0.145833, 0.576878
 1894, 0.166667, 0.586667
 1895, 0.187500, 0.597225
 1896, 0.208333, 0.608373
 1897, 0.229167, 0.619919
 1898, 0.250000, 0.631667
 1899, 0.270833, 0.643414
 1900, 0.291667, 0.654960
 1901, 0.312500, 0.666108
 1902, 0.333333, 0.676667
 1903, 0.354167, 0.686455
 1904, 0.375000, 0.695306
 1905, 0.395833, 0.703068
 1906, 0.416667, 0.709609
 1907, 0.437500, 0.714816
 1908, 0.458333, 0.718600
 1909, 0.479167, 0.720897
 1910, 0.500000, 0.721667
 1911, 0.520833, 0.720897
 1912, 0.541667, 0.718600
 1913, 0.562500, 0.714816
 1914, 0.583333, 0.709609
 1915, 0.604167, 0.703068
 1916, 0.625000, 0.695306
 1917, 0.645833, 0.686455
 1918, 0.666667, 0.676667
 1919, 0.687500, 0.666108
 1920, 0.708333, 0.654960
 1921, 0.729167, 0.643414
 1922, 0.750000, 0.631667
 1923, 0.770833, 0.619919
 1924, 0.791667, 0.608373
 1925, 0.812500, 0.597225
 1926, 0.833333, 0.586667
 1927, 0.854167, 0.576878
 1928, 0.875000, 0.568027
 1929, 0.895833, 0.560265
 1930, 0.916667, 0.553724
 1931, 0.937500, 0.548518
 1932, 0.958333, 0.544733
 1933, 0.979167, 0.542437
 1934, 1.000000, 0.541667
 1935, 1.020833, 0.542437
 1936, 1.041667, 0.544733
 1937, 1.062500, 0.548518
 1938, 1.083333, 0.553724
 1939, 1.104167, 0.560265
 1940, 1.125000, 0.568027
 1941, 1.145833, 0.576878
 1942, 1.166667, 0.586667
 1943, 1.187500, 0.597225
 1944, 1.208333, 0.608373
 1945, 1.229167, 0.619919
 1946, 1.250000, 0.631667
 1947, 1.270833, 0.643414
 1948, 1.291667, 0.654960
 1949, 1.312500, 0.666108
 1950, 1.333333, 0.676667
 1951, 1.354167, 0.686455
 1952, 1.375000, 0.695306
 1953, 1.395833, 0.703068
 1954, 1.416667, 0.709609
 1955, 1.437500, 0.714816
 1956, 1.458333, 0.718600
 1957, 1.479167, 0.720897
 1958, 1.500000, 0.721667
 1959, 1.520833, 0.720897
 1960, 1.541667, 0.718600
 1961, 1.562500, 0.714816
 1962, 1.583333, 0.709609
 1963, 1.604167, 0.703068
 1964, 1.625000, 0.695306
 1965, 1.645833, 0.686455
 1966, 1.666667, 0.676667
 1967, 1.687500, 0.666108
 1968, 1.708333, 0.654960
 1969, 1.729167, 0.643414
 1970, 1.750000, 0.631667
 1971, 1.770833, 0.619919
 1972, 1.791667, 0.608373
 1973, 1.812500, 0.597225
 1974, 1.833333, 0.586667
 1975, 1.854167, 0.576878
 1976, 1.875000, 0.568027
 1977, 1.895833, 0.560265
 1978, 1.916667, 0.553724
 1979, 1.937500, 0.548518
 1980, 1.958333, 0.544733
 1981, 1.979167, 0.542437
 1982, 2.000000, 0.541667
 1983, 2.020833, 0.542437
 1984, 2.041667, 0.544733
 1985, 2.062500, 0.548518
 1986, 2.083333, 0.553724
 1987, 2.104167, 0.560265
 1988, 2.125000, 0.568027
 1989, 2.145833, 0.576878
 1990, 2.166667, 0.586667
 1991, 2.187500, 0.597225
 1992, 2.208333, 0.608373
 1993, 2.229167, 0.619919
 1994, 2.250000, 0.631667
 1995, 2.270833, 0.643414
 1996, 2.291667, 0.654960
 1997, 2.312500, 0.666108
 1998, 2.333333, 0.676667
 1999, 2.354167, 0.686455
 2000, 2.375000, 0.695306
 2001, 2.395833, 0.703068
 2002, 2.416667, 0.709609
 2003, 2.437500, 0.714816
 2004, 2.458333, 0.718600
 2005, 2.479167, 0.720897
 2006, 2.500000, 0.721667
 2007, 2.520833, 0.720897
 2008, 2.541667, 0.718600
 2009, 2.562500, 0.714816
 2010, 2.583333, 0.709609
 2011, 2.604167, 0.703068
 2012, 2.625000, 0.695306
 2013, 2.645833, 0.686455
 2014, 2.666667, 0.676667
 2015, 2.687500, 0.666108
 2016, 2.708333, 0.654960
 2017, 2.729167, 0.643414
 2018, 2.750000, 0.631667
 2019, 2.770833, 0.619919
 2020, 2.791667, 0.608373
 2021, 2.812500, 0.597225
 2022, 2.833333, 0.586667
 2023, 2.854167, 0.576878
 2024, 2.875000, 0.568027
 2025, 2.895833, 0.560265
 2026, 2.916667, 0.553724
 2027, 2.937500, 0.548518
 2028, 2.958333, 0.544733
 2029, 2.979167, 0.542437
 2030, 3.000000, 0.541667
 2031, 0.000000, 0.583333
 2032, 0.020833, 0.584103
 2033, 0.041667, 0.586400
 2034, 0.062500, 0.590184
 2035, 0.083333, 0.595391
 2036, 0.104167, 0.601932
 2037, 0.125000, 0.609694
 2038, 0.145833, 0.618545
 2039, 0.166667, 0.628333
 2040, 0.187500, 0.638892
 2041, 0.208333, 0.650040
 2042, 0.229167, 0.661586
 2043, 0.250000, 0.673333
 2044, 0.270833, 0.685081
 2045, 0.291667, 0.696627
 2046, 0.312500, 0.707775
 2047, 0.333333, 0.718333
 2048, 0.354167, 0.728122
 2049, 0.375000, 0.736973
 2050, 0.395833, 0.744735
 2051, 0.416667, 0.751276
 2052, 0.437500, 0.756482
 2053, 0.458333, 0.760267
 2054, 0.479167, 0.762563
 2055, 0.500000, 0.763333
 2056, 0.520833, 0.762563
 2057, 0.541667, 0.760267
 2058, 0.562500, 0.756482
 2059, 0.583333, 0.751276
 2060, 0.604167, 0.744735
 2061, 0.625000, 0.736973
 2062, 0.645833, 0.728122
 2063, 0.666667, 0.718333
 2064, 0.687500, 0.707775
 2065, 0.708333, 0.696627
 2066, 0.729167, 0.685081
 2067, 0.750000, 0.673333
 2068, 0.770833, 0.661586
 2069, 0.791667, 0.650040
 2070, 0.812500, 0.638892
 2071, 0.833333, 0.628333
 2072, 0.854167, 0.618545
 2073, 0.875000, 0.609694
 2074, 0.895833, 0.601932
 2075, 0.916667, 0.595391
 2076, 0.937500, 0.590184
 2077, 0.958333, 0.586400
 2078, 0.979167, 0.584103
 2079, 1.000000, 0.583333
 2080, 1.020833, 0.584103
 2081, 1.041667, 0.586400
 2082, 1.062500, 0.590184
 2083, 1.083333, 0.595391
 2084, 1.104167, 0.601932
 2085, 1.125000, 0.609694
 2086, 1.145833, 0.618545
 2087, 1.166667, 0.628333
 2088, 1.187500, 0.638892
 2089, 1.208333, 0.650040
 2090, 1.229167, 0.661586
 2091, 1.250000, 0.673333
 2092, 1.270833, 0.685081
 2093, 1.291667, 0.696627
 2094, 1.312500, 0.707775
 2095, 1.333333, 0.718333
 2096, 1.354167, 0.728122
 2097, 1.375000, 0.736973
 2098, 1.395833, 0.744735
 2099, 1.416667, 0.751276
 2100, 1.437500, 0.756482
 2101, 1.458333, 0.760267
 2102, 1.479167, 0.762563
 2103, 1.500000, 0.763333
 2104, 1.520833, 0.762563
 2105, 1.541667, 0.760267
 2106, 1.562500, 0.756482
 2107, 1.583333, 0.751276
 2108, 1.604167, 0.744735
 2109, 1.625000, 0.736973
 2110, 1.645833, 0.728122
 2111, 1.666667, 0.718333
 2112, 1.687500, 0.707775
 2113, 1.708333, 0.696627
 2114, 1.729167, 0.685081
 2115, 1.750000, 0.673333
 2116, 1.770833, 0.661586
 2117, 1.791667, 0.650040
 2118, 1.812500, 0.638892
 2119, 1.833333, 0.628333
 2120, 1.854167, 0.618545
 2121, 1.875000, 0.609694
 2122, 1.895833, 0.601932
 2123, 1.916667, 0.595391
 2124, 1.937500, 0.590184
 2125, 1.958333, 0.586400
 2126, 1.979167, 0.584103
 2127, 2.000000, 0.583333
 2128, 2.020833, 0.584103
 2129, 2.041667, 0.586400
 2130, 2.062500, 0.590184
 2131, 2.083333, 0.595391
 2132, 2.104167, 0.601932
 2133, 2.125000, 0.609694
 2134, 2.145833, 0.618545
 2135, 2.166667, 0.628333
 2136, 2.187500, 0.638892
 2137, 2.208333, 0.650040
 2138, 2.229167, 0.661586
 2139, 2.250000, 0.673333
 2140, 2.270833, 0.685081
 2141, 2.291667, 0.696627
 2142, 2.312500, 0.707775
 2143, 2.333333, 0.718333
 2144, 2.354167, 0.728122
 2145, 2.375000, 0.736973
 2146, 2.395833, 0.744735
 2147, 2.416667, 0.751276
 2148, 2.437500, 0.756482
 2149, 2.458333, 0.760267
 2150, 2.479167, 0.762563
 2151, 2.500000, 0.763333
 2152, 2.520833, 0.762563
 2153, 2.541667, 0.760267
 2154, 2.562500, 0.756482
 2155, 2.583333, 0.751276
 2156, 2.604167, 0.744735
 2157, 2.625000, 0.736973
 2158, 2.645833, 0.728122
 2159, 2.666667, 0.718333
 2160, 2.687500, 0.707775
 2161, 2.708333, 0.696627
 2162, 2.729167, 0.685081
 2163, 2.750000, 0.673333
 2164, 2.770833, 0.661586
 2165, 2.791667, 0.650040
 2166, 2.812500, 0.638892
 2167, 2.833333, 0.628333
 2168, 2.854167, 0.618545
 2169, 2.875000, 0.609694
 2170, 2.895833, 0.601932
 2171, 2.916667, 0.595391
 2172, 2.937500, 0.590184
 2173, 2.958333, 0.586400
 2174, 2.979167, 0.584103
 2175, 3.000000, 0.583333
 2176, 0.000000, 0.625000
 2177, 0.020833, 0.625770
 2178, 0.041667, 0.628067
 2179, 0.062500, 0.631851
 2180, 0.083333, 0.637058
 2181, 0.104167, 0.643598
 2182, 0.125000, 0.651360
 2183, 0.145833, 0.660211
 2184, 0.166667, 0.670000
 2185, 0.187500, 0.680558
 2186, 0.208333, 0.691706
 2187, 0.229167, 0.703253
 2188, 0.250000, 0.715000
 2189, 0.270833, 0.726747
 2190, 0.291667, 0.738294
 2191, 0.312500, 0.749442
 2192, 0.333333, 0.760000
 2193, 0.354167, 0.769789
 2194, 0.375000, 0.778640
 2195, 0.395833, 0.786402
 2196, 0.416667, 0.792942
 2197, 0.437500, 0.798149
 2198, 0.458333, 0.801933
 2199, 0.479167, 0.804230
 2200, 0.500000, 0.805000
 2201, 0.520833, 0.804230
 2202, 0.541667, 0.801933
 2203, 0.562500, 0.798149
 2204, 0.583333, 0.792942
 2205, 0.604167, 0.786402
 2206, 0.625000, 0.778640
 2207, 0.645833, 0.769789
 2208, 0.666667, 0.760000
 2209, 0.687500, 0.749442
 2210, 0.708333, 0.738294
 2211, 0.729167, 0.726747
 2212, 0.750000, 0.715000
 2213, 0.770833, 0.703253
 2214, 0.791667, 0.691706
 2215, 0.812500, 0.680558
 2216, 0.833333, 0.670000
 2217, 0.854167, 0.660211
 2218, 0.875000, 0.651360
 2219, 0.895833, 0.643598
 2220, 0.916667, 0.637058
 2221, 0.937500, 0.631851
 2222, 0.958333, 0.628067
 2223, 0.979167, 0.625770
 2224, 1.000000, 0.625000
 2225, 1.020833, 0.625770
 2226, 1.041667, 0.628067
 2227, 1.062500, 0.631851
 2228, 1.083333, 0.637058
 2229, 1.104167, 0.643598
 2230, 1.125000, 0.651360
 2231, 1.145833, 0.660211
 2232, 1.166667, 0.670000
 2233, 1.187500, 0.680558
 2234, 1.208333, 0.691706
 2235, 1.229167, 0.703253
 2236, 1.250000, 0.715000
 2237, 1.270833, 0.726747
 2238, 1.291667, 0.738294
 2239, 1.312500, 0.749442
 2240, 1.333333, 0.760000
 2241, 1.354167, 0.769789
 2242, 1.375000, 0.778640
 2243, 1.395833, 0.786402
 2244, 1.416667, 0.792942
 2245, 1.437500, 0.798149
 2246, 1.458333, 0.801933
 2247, 1.479167, 0.804230
 2248, 1.500000, 0.805000
 2249, 1.520833, 0.804230
 2250, 1.541667, 0.801933
 2251, 1.562500, 0.798149
 2252, 1.583333, 0.792942
 2253, 1.604167, 0.786402
 2254, 1.625000, 0.778640
 2255, 1.645833, 0.769789
 2256, 1.666667, 0.760000
 2257, 1.687500, 0.749442
 2258, 1.708333, 0.738294
 2259, 1.729167, 0.726747
 2260, 1.750000, 0.715000
 2261, 1.770833, 0.703253
 2262, 1.791667, 0.691706
 2263, 1.812500, 0.680558
 2264, 1.833333, 0.670000
 2265, 1.854167, 0.660211
 2266, 1.875000, 0.651360
 2267, 1.895833, 0.643598
 2268, 1.916667, 0.637058
 2269, 1.937500, 0.631851
 2270, 1.958333, 0.628067
 2271, 1.979167, 0.625770
 2272, 2.000000, 0.625000
 2273, 2.020833, 0.625770
 2274, 2.041667, 0.628067
 2275, 2.062500, 0.631851
 2276, 2.083333, 0.637058
 2277, 2.104167, 0.643598
 2278, 2.125000, 0.651360
 2279, 2.145833, 0.660211
 2280, 2.166667, 0.670000
 2281, 2.187500, 0.680558
 2282, 2.208333, 0.691706
 2283, 2.229167, 0.703253
 2284, 2.250000, 0.715000
 2285, 2.270833, 0.726747
 2286, 2.291667, 0.738294
 2287, 2.312500, 0.749442
 2288, 2.333333, 0.760000
 2289, 2.354167, 0.769789
 2290, 2.375000, 0.778640
 2291, 2.395833, 0.786402
 2292, 2.416667, 0.792942
 2293, 2.437500, 0.798149
 2294, 2.458333, 0.801933
 2295, 2.479167, 0.804230
 2296, 2.500000, 0.805000
 2297, 2.520833, 0.804230
 2298, 2.541667, 0.801933
 2299, 2.562500, 0.798149
 2300, 2.583333, 0.792942
 2301, 2.604167, 0.786402
 2302, 2.625000, 0.778640
 2303, 2.645833, 0.769789
 2304, 2.666667, 0.760000
 2305, 2.687500, 0.749442
 2306, 2.708333, 0.738294
 2307, 2.729167, 0.726747
 2308, 2.750000, 0.715000
 2309, 2.770833, 0.703253
 2310, 2.791667, 0.691706
 2311, 2.812500, 0.680558
 2312, 2.833333, 0.670000
 2313, 2.854167, 0.660211
 2314, 2.875000, 0.651360
 2315, 2.895833, 0.643598
 2316, 2.916667, 0.637058
 2317, 2.937500, 0.631851
 2318, 2.958333, 0.628067
 2319, 2.979167, 0.625770
 2320, 3.000000, 0.625000
 2321, 0.000000, 0.666667
 2322, 0.020833, 0.667437
 2323, 0.041667, 0.669733
 2324, 0.062500, 0.673518
 2325, 0.083333, 0.678724
 2326, 0.104167, 0.685265
 2327, 0.125000, 0.693027
 2328, 0.145833, 0.701878
 2329, 0.166667, 0.711667
 2330, 0.187500, 0.722225
 2331, 0.208333, 0.733373
 2332, 0.229167, 0.744919
 2333, 0.250000, 0.756667
 2334, 0.270833, 0.768414
 2335, 0.291667, 0.779960
 2336, 0.312500, 0.791108
 2337, 0.333333, 0.801667
 2338, 0.354167, 0.811455
 2339, 0.375000, 0.820306
 2340, 0.395833, 0.828068
 2341, 0.416667, 0.834609
 2342, 0.437500, 0.839816
 2343, 0.458333, 0.843600
 2344, 0.479167, 0.845897
 2345, 0.500000, 0.846667
 2346, 0.520833, 0.845897
 2347, 0.541667, 0.843600
 2348, 0.562500, 0.839816
 2349, 0.583333, 0.834609
 2350, 0.604167, 0.828068
 2351, 0.625000, 0.820306
 2352, 0.645833, 0.811455
 2353, 0.666667, 0.801667
 2354, 0.687500, 0.791108
 2355, 0.708333, 0.779960
 2356, 0.729167, 0.768414
 2357, 0.750000, 0.756667
 2358, 0.770833, 0.744919
 2359, 0.791667, 0.733373
 2360, 0.812500, 0.722225
 2361, 0.833333, 0.711667
 2362, 0.854167, 0.701878
 2363, 0.875000, 0.693027
 2364, 0.895833, 0.685265
 2365, 0.916667, 0.678724
 2366, 0.937500, 0.673518
 2367, 0.958333, 0.669733
 2368, 0.979167, 0.667437
 2369, 1.000000, 0.666667
 2370, 1.020833, 0.667437
 2371, 1.041667, 0.669733
 2372, 1.062500, 0.673518
 2373, 1.083333, 0.678724
 2374, 1.104167, 0.685265
 2375, 1.125000, 0.693027
 2376, 1.145833, 0.701878
 2377, 1.166667, 0.711667
 2378, 1.187500, 0.722225
 2379, 1.208333, 0.733373
 2380, 1.229167, 0.744919
 2381, 1.250000, 0.756667
 2382, 1.270833, 0.768414
 2383, 1.291667, 0.779960
 2384, 1.312500, 0.791108
 2385, 1.333333, 0.801667
 2386, 1.354167, 0.811455
 2387, 1.375000, 0.820306
 2388, 1.395833, 0.828068
 2389, 1.416667, 0.834609
 2390, 1.437500, 0.839816
 2391, 1.458333, 0.843600
 2392, 1.479167, 0.845897
 2393, 1.500000, 0.846667
 2394, 1.520833, 0.845897
 2395, 1.541667, 0.843600
 2396, 1.562500, 0.839816
 2397, 1.583333, 0.834609
 2398, 1.604167, 0.828068
 2399, 1.625000, 0.820306
 2400, 1.645833, 0.811455
 2401, 1.666667, 0.801667
 2402, 1.687500, 0.791108
 2403, 1.708333, 0.779960
 2404, 1.729167, 0.768414
 2405, 1.750000, 0.756667
 2406, 1.770833, 0.744919
 2407, 1.791667, 0.733373
 2408, 1.812500, 0.722225
 2409, 1.833333, 0.711667
 2410, 1.854167, 0.701878
 2411, 1.875000, 0.693027
 2412, 1.895833, 0.685265
 2413, 1.916667, 0.678724
 2414, 1.937500, 0.673518
 2415, 1.958333, 0.669733
 2416, 1.979167, 0.667437
 2417, 2.000000, 0.666667
 2418, 2.020833, 0.667437
 2419, 2.041667, 0.669733
 2420, 2.062500, 0.673518
 2421, 2.083333, 0.678724
 2422, 2.104167, 0.685265
 2423, 2.125000, 0.693027
 2424, 2.145833, 0.701878
 2425, 2.166667, 0.711667
 2426, 2.187500, 0.722225
 2427, 2.208333, 0.733373
 2428, 2.229167, 0.744919
 2429, 2.250000, 0.756667
 2430, 2.270833, 0.768414
 2431, 2.291667, 0.779960
 2432, 2.312500, 0.791108
 2433, 2.333333, 0.801667
 2434, 2.354167, 0.811455
 2435, 2.375000, 0.820306
 2436, 2.395833, 0.828068
 2437, 2.416667, 0.834609
 2438, 2.437500, 0.839816
 2439, 2.458333, 0.843600
 2440, 2.479167, 0.845897
 2441, 2.500000, 0.846667
 2442, 2.520833, 0.845897
 2443, 2.541667, 0.843600
 2444, 2.562500, 0.839816
 2445, 2.583333, 0.834609
 2446, 2.604167, 0.828068
 2447, 2.625000, 0.820306
 2448, 2.645833, 0.811455
 2449, 2.666667, 0.801667
 2450, 2.687500, 0.791108
 2451, 2.708333, 0.779960
 2452, 2.729167, 0.768414
 2453, 2.750000, 0.756667
 2454, 2.770833, 0.744919
 2455, 2.791667, 0.733373
 2456, 2.812500, 0.722225
 2457, 2.833333, 0.711667
 2458, 2.854167, 0.701878
 2459, 2.875000, 0.693027
 2460, 2.895833, 0.685265
 2461, 2.916667, 0.678724
 2462, 2.937500, 0.673518
 2463, 2.958333, 0.669733
 2464, 2.979167, 0.667437
 2465, 3.000000, 0.666667
 2466, 0.000000, 0.708333
 2467, 0.020833, 0.709103
 2468, 0.041667, 0.711400
 2469, 0.062500, 0.715184
 2470, 0.083333, 0.720391
 2471, 0.104167, 0.726932
 2472, 0.125000, 0.734694
 2473, 0.145833, 0.743545
 2474, 0.166667, 0.753333
 2475, 0.187500, 0.763892
 2476, 0.208333, 0.775040
 2477, 0.229167, 0.786586
 2478, 0.250000, 0.798333
 2479, 0.270833, 0.810081
 2480, 0.291667, 0.821627
 2481, 0.312500, 0.832775
 2482, 0.333333, 0.843333
 2483, 0.354167, 0.853122
 2484, 0.375000, 0.861973
 2485, 0.395833, 0.869735
 2486, 0.416667, 0.876276
 2487, 0.437500, 0.881482
 2488, 0.458333, 0.885267
 2489, 0.479167, 0.887563
 2490, 0.500000, 0.888333
 2491, 0.520833, 0.887563
 2492, 0.541667, 0.885267
 2493, 0.562500, 0.881482
 2494, 0.583333, 0.876276
 2495, 0.604167, 0.869735
 2496, 0.625000, 0.861973
 2497, 0.645833, 0.853122
 2498, 0.666667, 0.843333
 2499, 0.687500, 0.832775
 2500, 0.708333, 0.821627
 2501, 0.729167, 0.810081
 2502, 0.750000, 0.798333
 2503, 0.770833, 0.786586
 2504, 0.791667, 0.775040
 2505, 0.812500, 0.763892
 2506, 0.833333, 0.753333
 2507, 0.854167, 0.743545
 2508, 0.875000, 0.734694
 2509, 0.895833, 0.726932
 2510, 0.916667, 0.720391
 2511, 0.937500, 0.715184
 2512, 0.958333, 0.711400
 2513, 0.979167, 0.709103
 2514, 1.000000, 0.708333
 2515, 1.020833, 0.709103
 2516, 1.041667, 0.711400
 2517, 1.062500, 0.715184
 2518, 1.083333, 0.720391
 2519, 1.104167, 0.726932
 2520, 1.125000, 0.734694
 2521, 1.145833, 0.743545
 2522, 1.166667, 0.753333
 2523, 1.187500, 0.763892
 2524, 1.208333, 0.775040
 2525, 1.229167, 0.786586
 2526, 1.250000, 0.798333
 2527, 1.270833, 0.810081
 2528, 1.291667, 0.821627
 2529, 1.312500, 0.832775
 2530, 1.333333, 0.843333
 2531, 1.354167, 0.853122
 2532, 1.375000, 0.861973
 2533, 1.395833, 0.869735
 2534, 1.416667, 0.876276
 2535, 1.437500, 0.881482
 2536, 1.458333, 0.885267
 2537, 1.479167, 0.887563
 2538, 1.500000, 0.888333
 2539, 1.520833, 0.887563
 2540, 1.541667, 0.885267
 2541, 1.562500, 0.881482
 2542, 1.583333, 0.876276
 2543, 1.604167, 0.869735
 2544, 1.625000, 0.861973
 2545, 1.645833, 0.853122
 2546, 1.666667, 0.843333
 2547, 1.687500, 0.832775
 2548, 1.708333, 0.821627
 2549, 1.729167, 0.810081
 2550, 1.750000, 0.798333
 2551, 1.770833, 0.786586
 2552, 1.791667, 0.775040
 2553, 1.812500, 0.763892
 2554, 1.833333, 0.753333
 2555, 1.854167, 0.743545
 2556, 1.875000, 0.734694
 2557, 1.895833, 0.726932
 2558, 1.916667, 0.720391
 2559, 1.937500, 0.715184
 2560, 1.958333, 0.711400
 2561, 1.979167, 0.709103
 2562, 2.000000, 0.708333
 2563, 2.020833, 0.709103
 2564, 2.041667, 0.711400
 2565, 2.062500, 0.715184
 2566, 2.083333, 0.720391
 2567, 2.104167, 0.726932
 2568, 2.125000, 0.734694
 2569, 2.145833, 0.743545
 2570, 2.166667, 0.753333
 2571, 2.187500, 0.763892
 2572, 2.208333, 0.775040
 2573, 2.229167, 0.786586
 2574, 2.250000, 0.798333
 2575, 2.270833, 0.810081
 2576, 2.291667, 0.821627
 2577, 2.312500, 0.832775
 2578, 2.333333, 0.843333
 2579, 2.354167, 0.853122
 2580, 2.375000, 0.861973
 2581, 2.395833, 0.869735
 2582, 2.416667, 0.876276
 2583, 2.437500, 0.881482
 2584, 2.458333, 0.885267
 2585, 2.479167, 0.887563
 2586, 2.500000, 0.888333
 2587, 2.520833, 0.887563
 2588, 2.541667, 0.885267
 2589, 2.562500, 0.881482
 2590, 2.583333, 0.876276
 2591, 2.604167, 0.869735
 2592, 2.625000, 0.861973
 2593, 2.645833, 0.853122
 2594, 2.666667, 0.843333
 2595, 2.687500, 0.832775
 2596, 2.708333, 0.821627
 2597, 2.729167, 0.810081
 2598, 2.750000, 0.798333
 2599, 2.770833, 0.786586
 2600, 2.791667, 0.775040
 2601, 2.812500, 0.763892
 2602, 2.833333, 0.753333
 2603, 2.854167, 0.743545
 2604, 2.875000, 0.734694
 2605, 2.895833, 0.726932
 2606, 2.916667, 0.720391
 2607, 2.937500, 0.715184
 2608, 2.958333, 0.711400
 2609, 2.979167, 0.709103
 2610, 3.000000, 0.708333
 2611, 0.000000, 0.750000
 2612, 0.020833, 0.750770
 2613, 0.041667, 0.753067
 2614, 0.062500, 0.756851
 2615, 0.083333, 0.762058
 2616, 0.104167, 0.768598
 2617, 0.125000, 0.776360
 2618, 0.145833, 0.785211
 2619, 0.166667, 0.795000
 2620, 0.187500, 0.805558
 2621, 0.208333, 0.816706
 2622, 0.229167, 0.828253
 2623, 0.250000, 0.840000
 2624, 0.270833, 0.851747
 2625, 0.291667, 0.863294
 2626, 0.312500, 0.874442
 2627, 0.333333, 0.885000
 2628, 0.354167, 0.894789
 2629, 0.375000, 0.903640
 2630, 0.395833, 0.911402
 2631, 0.416667, 0.917942
 2632, 0.437500, 0.923149
 2633, 0.458333, 0.926933
 2634, 0.479167, 0.929230
 2635, 0.500000, 0.930000
 2636, 0.520833, 0.929230
 2637, 0.541667, 0.926933
 2638, 0.562500, 0.923149
 2639, 0.583333, 0.917942
 2640, 0.604167, 0.911402
 2641, 0.625000, 0.903640
 2642, 0.645833, 0.894789
 2643, 0.666667, 0.885000
 2644, 0.687500, 0.874442
 2645, 0.708333, 0.863294
 2646, 0.729167, 0.851747
 2647, 0.750000, 0.840000
 2648, 0.770833, 0.828253
 2649, 0.791667, 0.816706
 2650, 0.812500, 0.805558
 2651, 0.833333, 0.795000
 2652, 0.854167, 0.785211
 2653, 0.875000, 0.776360
 2654, 0.895833, 0.768598
 2655, 0.916667, 0.762058
 2656, 0.937500, 0.756851
 2657, 0.958333, 0.753067
 2658, 0.979167, 0.750770
 2659, 1.000000, 0.750000
 2660, 1.020833, 0.750770
 2661, 1.041667, 0.753067
 2662, 1.062500, 0.756851
 2663, 1.083333, 0.762058
 2664, 1.104167, 0.768598
 2665, 1.125000, 0.776360
 2666, 1.145833, 0.785211
 2667, 1.166667, 0.795000
 2668, 1.187500, 0.805558
 2669, 1.208333, 0.816706
 2670, 1.229167, 0.828253
 2671, 1.250000, 0.840000
 2672, 1.270833, 0.851747
 2673, 1.291667, 0.863294
 2674, 1.312500, 0.874442
 2675, 1.333333, 0.885000
 2676, 1.354167, 0.894789
 2677, 1.375000, 0.903640
 2678, 1.395833, 0.911402
 2679, 1.416667, 0.917942
 2680, 1.437500, 0.923149
 2681, 1.458333, 0.926933
 2682, 1.479167, 0.929230
 2683, 1.500000, 0.930000
 2684, 1.520833, 0.929230
 2685, 1.541667, 0.926933
 2686, 1.562500, 0.923149
 2687, 1.583333, 0.917942
 2688, 1.604167, 0.911402
 2689, 1.625000, 0.903640
 2690, 1.645833, 0.894789
 2691, 1.666667, 0.885000
 2692, 1.687500, 0.874442
 2693, 1.708333, 0.863294
 2694, 1.729167, 0.851747
 2695, 1.750000, 0.840000
 2696, 1.770833, 0.828253
 2697, 1.791667, 0.816706
 2698, 1.812500, 0.805558
 2699, 1.833333, 0.795000
 2700, 1.854167, 0.785211
 2701, 1.875000, 0.776360
 2702, 1.895833, 0.768598
 2703, 1.916667, 0.762058
 2704, 1.937500, 0.756851
 2705, 1.958333, 0.753067
 2706, 1.979167, 0.750770
 2707, 2.000000, 0.750000
 2708, 2.020833, 0.750770
 2709, 2.041667, 0.753067
 2710, 2.062500, 0.756851
 2711, 2.083333, 0.762058
 2712, 2.104167, 0.768598
 2713, 2.125000, 0.776360
 2714, 2.145833, 0.785211
 2715, 2.166667, 0.795000
 2716, 2.187500, 0.805558
 2717, 2.208333, 0.816706
 2718, 2.229167, 0.828253
 2719, 2.250000, 0.840000
 2720, 2.270833, 0.851747
 2721, 2.291667, 0.863294
 2722, 2.312500, 0.874442
 2723, 2.333333, 0.885000
 2724, 2.354167, 0.894789
 2725, 2.375000, 0.903640
 2726, 2.395833, 0.911402
 2727, 2.416667, 0.917942
 2728, 2.437500, 0.923149
 2729, 2.458333, 0.926933
 2730, 2.479167, 0.929230
 2731, 2.500000, 0.930000
 2732, 2.520833, 0.929230
 2733, 2.541667, 0.926933
 2734, 2.562500, 0.923149
 2735, 2.583333, 0.917942
 2736, 2.604167, 0.911402
 2737, 2.625000, 0.903640
 2738, 2.645833, 0.894789
 2739, 2.666667, 0.885000
 2740, 2.687500, 0.874442
 2741, 2.708333, 0.863294
 2742, 2.729167, 0.851747
 2743, 2.750000, 0.840000
 2744, 2.770833, 0.828253
 2745, 2.791667, 0.816706
 2746, 2.812500, 0.805558
 2747, 2.833333, 0.795000
 2748, 2.854167, 0.785211
 2749, 2.875000, 0.776360
 2750, 2.895833, 0.768598
 2751, 2.916667, 0.762058
 2752, 2.937500, 0.756851
 2753, 2.958333, 0.753067
 2754, 2.979167, 0.750770
 2755, 3.000000, 0.750000
 2756, 0.000000, 0.791667
 2757, 0.020833, 0.792437
 2758, 0.041667, 0.794733
 2759, 0.062500, 0.798518
 2760, 0.083333, 0.803724
 2761, 0.104167, 0.810265
 2762, 0.125000, 0.818027
 2763, 0.145833, 0.826878
 2764, 0.166667, 0.836667
 2765, 0.187500, 0.847225
 2766, 0.208333, 0.858373
 2767, 0.229167, 0.869919
 2768, 0.250000, 0.881667
 2769, 0.270833, 0.893414
 2770, 0.291667, 0.904960
 2771, 0.312500, 0.916108
 2772, 0.333333, 0.926667
 2773, 0.354167, 0.936455
 2774, 0.375000, 0.945306
 2775, 0.395833, 0.953068
 2776, 0.416667, 0.959609
 2777, 0.437500, 0.964816
 2778, 0.458333, 0.968600
 2779, 0.479167, 0.970897
 2780, 0.500000, 0.971667
 2781, 0.520833, 0.970897
 2782, 0.541667, 0.968600
 2783, 0.562500, 0.964816
 2784, 0.583333, 0.959609
 2785, 0.604167, 0.953068
 2786, 0.625000, 0.945306
 2787, 0.645833, 0.936455
 2788, 0.666667, 0.926667
 2789, 0.687500, 0.916108
 2790, 0.708333, 0.904960
 2791, 0.729167, 0.893414
 2792, 0.750000, 0.881667
 2793, 0.770833, 0.869919
 2794, 0.791667, 0.858373
 2795, 0.812500, 0.847225
 2796, 0.833333, 0.836667
 2797, 0.854167, 0.826878
 2798, 0.875000, 0.818027
 2799, 0.895833, 0.810265
 2800, 0.916667, 0.803724
 2801, 0.937500, 0.798518
 2802, 0.958333, 0.794733
 2803, 0.979167, 0.792437
 2804, 1.000000, 0.791667
 2805, 1.020833, 0.792437
 2806, 1.041667, 0.794733
 2807, 1.062500, 0.798518
 2808, 1.083333, 0.803724
 2809, 1.104167, 0.810265
 2810, 1.125000, 0.818027
 2811, 1.145833, 0.826878
 2812, 1.166667, 0.836667
 2813, 1.187500, 0.847225
 2814, 1.208333, 0.858373
 2815, 1.229167, 0.869919
 2816, 1.250000, 0.881667
 2817, 1.270833, 0.893414
 2818, 1.291667, 0.904960
 2819, 1.312500, 0.916108
 2820, 1.333333, 0.926667
 2821, 1.354167, 0.936455
 2822, 1.375000, 0.945306
 2823, 1.395833, 0.953068
 2824, 1.416667, 0.959609
 2825, 1.437500, 0.964816
 2826, 1.458333, 0.968600
 2827, 1.479167, 0.970897
 2828, 1.500000, 0.971667
 2829, 1.520833, 0.970897
 2830, 1.541667, 0.968600
 2831, 1.562500, 0.964816
 2832, 1.583333, 0.959609
 2833, 1.604167, 0.953068
 2834, 1.625000, 0.945306
 2835, 1.645833, 0.936455
 2836, 1.666667, 0.926667
 2837, 1.687500, 0.916108
 2838, 1.708333, 0.904960
 2839, 1.729167, 0.893414
 2840, 1.750000, 0.881667
 2841, 1.770833, 0.869919
 2842, 1.791667, 0.858373
 2843, 1.812500, 0.847225
 2844, 1.833333, 0.836667
 2845, 1.854167, 0.826878
 2846, 1.875000, 0.818027
 2847, 1.895833, 0.810265
 2848, 1.916667, 0.803724
 2849, 1.937500, 0.798518
 2850, 1.958333, 0.794733
 2851, 1.979167, 0.792437
 2852, 2.000000, 0.791667
 2853, 2.020833, 0.792437
 2854, 2.041667, 0.794733
 2855, 2.062500, 0.798518
 2856, 2.083333, 0.803724
 2857, 2.104167, 0.810265
 2858, 2.125000, 0.818027
 2859, 2.145833, 0.826878
 2860, 2.166667, 0.836667
 2861, 2.187500, 0.847225
 2862, 2.208333, 0.858373
 2863, 2.229167, 0.869919
 2864, 2.250000, 0.881667
 2865, 2.270833, 0.893414
 2866, 2.291667, 0.904960
 2867, 2.312500, 0.916108
 2868, 2.333333, 0.926667
 2869, 2.354167, 0.936455
 2870, 2.375000, 0.945306
 2871, 2.395833, 0.953068
 2872, 2.416667, 0.959609
 2873, 2.437500, 0.964816
 2874, 2.458333, 0.968600
 2875, 2.479167, 0.970897
 2876, 2.500000, 0.971667
 2877, 2.520833, 0.970897
 2878, 2.541667, 0.968600
 2879, 2.562500, 0.964816
 2880, 2.583333, 0.959609
 2881, 2.604167, 0.953068
 2882, 2.625000, 0.945306
 2883, 2.645833, 0.936455
 2884, 2.666667, 0.926667
 2885, 2.687500, 0.916108
 2886, 2.708333, 0.904960
 2887, 2.729167, 0.893414
 2888, 2.750000, 0.881667
 2889, 2.770833, 0.869919
 2890, 2.791667, 0.858373
 2891, 2.812500, 0.847225
 2892, 2.833333, 0.836667
 2893, 2.854167, 0.826878
 2894, 2.875000, 0.818027
 2895, 2.895833, 0.810265
 2896, 2.916667, 0.803724
 2897, 2.937500, 0.798518
 2898, 2.958333, 0.794733
 2899, 2.979167, 0.792437
 2900, 3.000000, 0.791667
 2901, 0.000000, 0.833333
 2902, 0.020833, 0.834103
 2903, 0.041667, 0.836400
 2904, 0.062500, 0.840184
 2905, 0.083333, 0.845391
 2906, 0.104167, 0.851932
 2907, 0.125000, 0.859694
 2908, 0.145833, 0.868545
 2909, 0.166667, 0.878333
 2910, 0.187500, 0.888892
 2911, 0.208333, 0.900040
 2912, 0.229167, 0.911586
 2913, 0.250000, 0.923333
 2914, 0.270833, 0.935081
 2915, 0.291667, 0.946627
 2916, 0.312500, 0.957775
 2917, 0.333333, 0.968333
 2918, 0.354167, 0.978122
 2919, 0.375000, 0.986973
 2920, 0.395833, 0.994735
 2921, 0.416667, 1.001276
 2922, 0.437500, 1.006482
 2923, 0.458333, 1.010267
 2924, 0.479167, 1.012563
 2925, 0.500000, 1.013333
 2926, 0.520833, 1.012563
 2927, 0.541667, 1.010267
 2928, 0.562500, 1.006482
 2929, 0.583333, 1.001276
 2930, 0.604167, 0.994735
 2931, 0.625000, 0.986973
 2932, 0.645833, 0.978122
 2933, 0.666667, 0.968333
 2934, 0.687500, 0.957775
 2935, 0.708333, 0.946627
 2936, 0.729167, 0.935081
 2937, 0.750000, 0.923333
 2938, 0.770833, 0.911586
 2939, 0.791667, 0.900040
 2940, 0.812500, 0.888892
 2941, 0.833333, 0.878333
 2942, 0.854167, 0.868545
 2943, 0.875000, 0.859694
 2944, 0.895833, 0.851932
 2945, 0.916667, 0.845391
 2946, 0.937500, 0.840184
 2947, 0.958333, 0.836400
 2948, 0.979167, 0.834103
 2949, 1.000000, 0.833333
 2950, 1.020833, 0.834103
 2951, 1.041667, 0.836400
 2952, 1.062500, 0.840184
 2953, 1.083333, 0.845391
 2954, 1.104167, 0.851932
 2955, 1.125000, 0.859694
 2956, 1.145833, 0.868545
 2957, 1.166667, 0.878333
 2958, 1.187500, 0.888892
 2959, 1.208333, 0.900040
 2960, 1.229167, 0.911586
 2961, 1.250000, 0.923333
 2962, 1.270833, 0.935081
 2963, 1.291667, 0.946627
 2964, 1.312500, 0.957775
 2965, 1.333333, 0.968333
 2966, 1.354167, 0.978122
 2967, 1.375000, 0.986973
 2968, 1.395833, 0.994735
 2969, 1.416667, 1.001276
 2970, 1.437500, 1.006482
 2971, 1.458333, 1.010267
 2972, 1.479167, 1.012563
 2973, 1.500000, 1.013333
 2974, 1.520833, 1.012563
 2975, 1.541667, 1.010267
 2976, 1.562500, 1.006482
 2977, 1.583333, 1.001276
 2978, 1.604167, 0.994735
 2979, 1.625000, 0.986973
 2980, 1.645833, 0.978122
 2981, 1.666667, 0.968333
 2982, 1.687500, 0.957775
 2983, 1.708333, 0.946627
 2984, 1.729167, 0.935081
 2985, 1.750000, 0.923333
 2986, 1.770833, 0.911586
 2987, 1.791667, 0.900040
 2988, 1.812500, 0.888892
 2989, 1.833333, 0.878333
 2990, 1.854167, 0.868545
 2991, 1.875000, 0.859694
 2992, 1.895833, 0.851932
 2993, 1.916667, 0.845391
 2994, 1.937500, 0.840184
 2995, 1.958333, 0.836400
 2996, 1.979167, 0.834103
 2997, 2.000000, 0.833333
 2998, 2.020833, 0.834103
 2999, 2.041667, 0.836400
 3000, 2.062500, 0.840184
 3001, 2.083333, 0.845391
 3002, 2.104167, 0.851932
 3003, 2.125000, 0.859694
 3004, 2.145833, 0.868545
 3005, 2.166667, 0.878333
 3006, 2.187500, 0.888892
 3007, 2.208333, 0.900040
 3008, 2.229167, 0.911586
 3009, 2.250000, 0.923333
 3010, 2.270833, 0.935081
 3011, 2.291667, 0.946627
 3012, 2.312500, 0.957775
 3013, 2.333333, 0.968333
 3014, 2.354167, 0.978122
 3015, 2.375000, 0.986973
 3016, 2.395833, 0.994735
 3017, 2.416667, 1.001276
 3018, 2.437500, 1.006482
 3019, 2.458333, 1.010267
 3020, 2.479167, 1.012563
 3021, 2.500000, 1.013333
 3022, 2.520833, 1.012563
 3023, 2.541667, 1.010267
 3024, 2.562500, 1.006482
 3025, 2.583333, 1.001276
 3026, 2.604167, 0.994735
 3027, 2.625000, 0.986973
 3028, 2.645833, 0.978122
 3029, 2.666667, 0.968333
 3030, 2.687500, 0.957775
 3031, 2.708333, 0.946627
 3032, 2.729167, 0.935081
 3033, 2.750000, 0.923333
 3034, 2.770833, 0.911586
 3035, 2.791667, 0.900040
 3036, 2.812500, 0.888892
 3037, 2.833333, 0.878333
 3038, 2.854167, 0.868545
 3039, 2.875000, 0.859694
 3040, 2.895833, 0.851932
 3041, 2.916667, 0.845391
 3042, 2.937500, 0.840184
 3043, 2.958333, 0.836400
 3044, 2.979167, 0.834103
 3045, 3.000000, 0.833333
 3046, 0.000000, 0.875000
 3047, 0.020833, 0.875770
 3048, 0.041667, 0.878067
 3049, 0.062500, 0.881851
 3050, 0.083333, 0.887058
 3051, 0.104167, 0.893598
 3052, 0.125000, 0.901360
 3053, 0.145833, 0.910211
 3054, 0.166667, 0.920000
 3055, 0.187500, 0.930558
 3056, 0.208333, 0.941706
 3057, 0.229167, 0.953253
 3058, 0.250000, 0.965000
 3059, 0.270833, 0.976747
 3060, 0.291667, 0.988294
 3061, 0.312500, 0.999442
 3062, 0.333333, 1.010000
 3063, 0.354167, 1.019789
 3064, 0.375000, 1.028640
 3065, 0.395833, 1.036402
 3066, 0.416667, 1.042942
 3067, 0.437500, 1.048149
 3068, 0.458333, 1.051933
 3069, 0.479167, 1.054230
 3070, 0.500000, 1.055000
 3071, 0.520833, 1.054230
 3072, 0.541667, 1.051933
 3073, 0.562500, 1.048149
 3074, 0.583333, 1.042942
 3075, 0.604167, 1.036402
 3076, 0.625000, 1.028640
 3077, 0.645833, 1.019789
 3078, 0.666667, 1.010000
 3079, 0.687500, 0.999442
 3080, 0.708333, 0.988294
 3081, 0.729167, 0.976747
 3082, 0.750000, 0.965000
 3083, 0.770833, 0.953253
 3084, 0.791667, 0.941706
 3085, 0.812500, 0.930558
 3086, 0.833333, 0.920000
 3087, 0.854167, 0.910211
 3088, 0.875000, 0.901360
 3089, 0.895833, 0.893598
 3090, 0.916667, 0.887058
 3091, 0.937500, 0.881851
 3092, 0.958333, 0.878067
 3093, 0.979167, 0.875770
 3094, 1.000000, 0.875000
 3095, 1.020833, 0.875770
 3096, 1.041667, 0.878067
 3097, 1.062500, 0.881851
 3098, 1.083333, 0.887058
 3099, 1.104167, 0.893598
 3100, 1.125000, 0.901360
 3101, 1.145833, 0.910211
 3102, 1.166667, 0.920000
 3103, 1.187500, 0.930558
 3104, 1.208333, 0.941706
 3105, 1.229167, 0.953253
 3106, 1.250000, 0.965000
 3107, 1.270833, 0.976747
 3108, 1.291667, 0.988294
 3109, 1.312500, 0.999442
 3110, 1.333333, 1.010000
 3111, 1.354167, 1.019789
 3112, 1.375000, 1.028640
 3113, 1.395833, 1.036402
 3114, 1.416667, 1.042942
 3115, 1.437500, 1.048149
 3116, 1.458333, 1.051933
 3117, 1.479167, 1.054230
 3118, 1.500000, 1.055000
 3119, 1.520833, 1.054230
 3120, 1.541667, 1.051933
 3121, 1.562500, 1.048149
 3122, 1.583333, 1.042942
 3123, 1.604167, 1.036402
 3124, 1.625000, 1.028640
 3125, 1.645833, 1.019789
 3126, 1.666667, 1.010000
 3127, 1.687500, 0.999442
 3128, 1.708333, 0.988294
 3129, 1.729167, 0.976747
 3130, 1.750000, 0.965000
 3131, 1.770833, 0.953253
 3132, 1.791667, 0.941706
 3133, 1.812500, 0.930558
 3134, 1.833333, 0.920000
 3135, 1.854167, 0.910211
 3136, 1.875000, 0.901360
 3137, 1.895833, 0.893598
 3138, 1.916667, 0.887058
 3139, 1.937500, 0.881851
 3140, 1.958333, 0.878067
 3141, 1.979167, 0.875770
 3142, 2.000000, 0.875000
 3143, 2.020833, 0.875770
 3144, 2.041667, 0.878067
 3145, 2.062500, 0.881851
 3146, 2.083333, 0.887058
 3147, 2.104167, 0.893598
 3148, 2.125000, 0.901360
 3149, 2.145833, 0.910211
 3150, 2.166667, 0.920000
 3151, 2.187500, 0.930558
 3152, 2.208333, 0.941706
 3153, 2.229167, 0.953253
 3154, 2.250000, 0.965000
 3155, 2.270833, 0.976747
 3156, 2.291667, 0.988294
 3157, 2.312500, 0.999442
 3158, 2.333333, 1.010000
 3159, 2.354167, 1.019789
 3160, 2.375000, 1.028640
 3161, 2.395833, 1.036402
 3162, 2.416667, 1.042942
 3163, 2.437500, 1.048149
 3164, 2.458333, 1.051933
 3165, 2.479167, 1.054230
 3166, 2.500000, 1.055000
 3167, 2.520833, 1.054230
 3168, 2.541667, 1.051933
 3169, 2.562500, 1.048149
 3170, 2.583333, 1.042942
 3171, 2.604167, 1.036402
 3172, 2.625000, 1.028640
 3173, 2.645833, 1.019789
 3174, 2.666667, 1.010000
 3175, 2.687500, 0.999442
 3176, 2.708333, 0.988294
 3177, 2.729167, 0.976747
 3178, 2.750000, 0.965000
 3179, 2.770833, 0.953253
 3180, 2.791667, 0.941706
 3181, 2.812500, 0.930558
 3182, 2.833333, 0.920000
 3183, 2.854167, 0.910211
 3184, 2.875000, 0.901360
 3185, 2.895833, 0.893598
 3186, 2.916667, 0.887058
 3187, 2.937500, 0.881851
 3188, 2.958333, 0.878067
 3189, 2.979167, 0.875770
 3190, 3.000000, 0.875000
 3191, 0.000000, 0.916667
 3192, 0.020833, 0.917437
 3193, 0.041667, 0.919733
 3194, 0.062500, 0.923518
 3195, 0.083333, 0.928724
 3196, 0.104167, 0.935265
 3197, 0.125000, 0.943027
 3198, 0.145833, 0.951878
 3199, 0.166667, 0.961667
 3200, 0.187500, 0.972225
 3201, 0.208333, 0.983373
 3202, 0.229167, 0.994919
 3203, 0.250000, 1.006667
 3204, 0.270833, 1.018414
 3205, 0.291667, 1.029960
 3206, 0.312500, 1.041108
 3207, 0.333333, 1.051667
 3208, 0.354167, 1.061455
 3209, 0.375000, 1.070306
 3210, 0.395833, 1.078068
 3211, 0.416667, 1.084609
 3212, 0.437500, 1.089816
 3213, 0.458333, 1.093600
 3214, 0.479167, 1.095897
 3215, 0.500000, 1.096667
 3216, 0.520833, 1.095897
 3217, 0.541667, 1.093600
 3218, 0.562500, 1.089816
 3219, 0.583333, 1.084609
 3220, 0.604167, 1.078068
 3221, 0.625000, 1.070306
 3222, 0.645833, 1.061455
 3223, 0.666667, 1.051667
 3224, 0.687500, 1.041108
 3225, 0.708333, 1.029960
 3226, 0.729167, 1.018414
 3227, 0.750000, 1.006667
 3228, 0.770833, 0.994919
 3229, 0.791667, 0.983373
 3230, 0.812500, 0.972225
 3231, 0.833333, 0.961667
 3232, 0.854167, 0.951878
 3233, 0.875000, 0.943027
 3234, 0.895833, 0.935265
 3235, 0.916667, 0.928724
 3236, 0.937500, 0.923518
 3237, 0.958333, 0.919733
 3238, 0.979167, 0.917437
 3239, 1.000000, 0.916667
 3240, 1.020833, 0.917437
 3241, 1.041667, 0.919733
 3242, 1.062500, 0.923518
 3243, 1.083333, 0.928724
 3244, 1.104167, 0.935265
 3245, 1.125000, 0.943027
 3246, 1.145833, 0.951878
 3247, 1.166667, 0.961667
 3248, 1.187500, 0.972225
 3249, 1.208333, 0.983373
 3250, 1.229167, 0.994919
 3251, 1.250000, 1.006667
 3252, 1.270833, 1.018414
 3253, 1.291667, 1.029960
 3254, 1.312500, 1.041108
 3255, 1.333333, 1.051667
 3256, 1.354167, 1.061455
 3257, 1.375000, 1.070306
 3258, 1.395833, 1.078068
 3259, 1.416667, 1.084609
 3260, 1.437500, 1.089816
 3261, 1.458333, 1.093600
 3262, 1.479167, 1.095897
 3263, 1.500000, 1.096667
 3264, 1.520833, 1.095897
 3265, 1.541667, 1.093600
 3266, 1.562500, 1.089816
 3267, 1.583333, 1.084609
 3268, 1.604167, 1.078068
 3269, 1.625000, 1.070306
 3270, 1.645833, 1.061455
 3271, 1.666667, 1.051667
 3272, 1.687500, 1.041108
 3273, 1.708333, 1.029960
 3274, 1.729167, 1.018414
 3275, 1.750000, 1.006667
 3276, 1.770833, 0.994919
 3277, 1.791667, 0.983373
 3278, 1.812500, 0.972225
 3279, 1.833333, 0.961667
 3280, 1.854167, 0.951878
 3281, 1.875000, 0.943027
 3282, 1.895833, 0.935265
 3283, 1.916667, 0.928724
 3284, 1.937500, 0.923518
 3285, 1.958333, 0.919733
 3286, 1.979167, 0.917437
 3287, 2.000000, 0.916667
 3288, 2.020833, 0.917437
 3289, 2.041667, 0.919733
 3290, 2.062500, 0.923518
 3291, 2.083333, 0.928724
 3292, 2.104167, 0.935265
 3293, 2.125000, 0.943027
 3294, 2.145833, 0.951878
 3295, 2.166667, 0.961667
 3296, 2.187500, 0.972225
 3297, 2.208333, 0.983373
 3298, 2.229167, 0.994919
 3299, 2.250000, 1.006667
 3300, 2.270833, 1.018414
 3301, 2.291667, 1.029960
 3302, 2.312500, 1.041108
 3303, 2.333333, 1.051667
 3304, 2.354167, 1.061455
 3305, 2.375000, 1.070306
 3306, 2.395833, 1.078068
 3307, 2.416667, 1.084609
 3308, 2.437500, 1.089816
 3309, 2.458333, 1.093600
 3310, 2.479167, 1.095897
 3311, 2.500000, 1.096667
 3312, 2.520833, 1.095897
 3313, 2.541667, 1.093600
 3314, 2.562500, 1.089816
 3315, 2.583333, 1.084609
 3316, 2.604167, 1.078068
 3317, 2.625000, 1.070306
 3318, 2.645833, 1.061455
 3319, 2.666667, 1.051667
 3320, 2.687500, 1.041108
 3321, 2.708333, 1.029960
 3322, 2.729167, 1.018414
 3323, 2.750000, 1.006667
 3324, 2.770833, 0.994919
 3325, 2.791667, 0.983373
 3326, 2.812500, 0.972225
 3327, 2.833333, 0.961667
 3328, 2.854167, 0.951878
 3329, 2.875000, 0.943027
 3330, 2.895833, 0.935265
 3331, 2.916667, 0.928724
 3332, 2.937500, 0.923518
 3333, 2.958333, 0.919733
 3334, 2.979167, 0.917437
 3335, 3.000000, 0.916667
 3336, 0.000000, 0.958333
 3337, 0.020833, 0.959103
 3338, 0.041667, 0.961400
 3339, 0.062500, 0.965184
 3340, 0.083333, 0.970391
 3341, 0.104167, 0.976932
 3342, 0.125000, 0.984694
 3343, 0.145833, 0.993545
 3344, 0.166667, 1.003333
 3345, 0.187500, 1.013892
 3346, 0.208333, 1.025040
 3347, 0.229167, 1.036586
 3348, 0.250000, 1.048333
 3349, 0.270833, 1.060081
 3350, 0.291667, 1.071627
 3351, 0.312500, 1.082775
 3352, 0.333333, 1.093333
 3353, 0.354167, 1.103122
 3354, 0.375000, 1.111973
 3355, 0.395833, 1.119735
 3356, 0.416667, 1.126276
 3357, 0.437500, 1.131482
 3358, 0.458333, 1.135267
 3359, 0.479167, 1.137563
 3360, 0.500000, 1.138333
 3361, 0.520833, 1.137563
 3362, 0.541667, 1.135267
 3363, 0.562500, 1.131482
 3364, 0.583333, 1.126276
 3365, 0.604167, 1.119735
 3366, 0.625000, 1.111973
 3367, 0.645833, 1.103122
 3368, 0.666667, 1.093333
 3369, 0.687500, 1.082775
 3370, 0.708333, 1.071627
 3371, 0.729167, 1.060081
 3372, 0.750000, 1.048333
 3373, 0.770833, 1.036586
 3374, 0.791667, 1.025040
 3375, 0.812500, 1.013892
 3376, 0.833333, 1.003333
 3377, 0.854167, 0.993545
 3378, 0.875000, 0.984694
 3379, 0.895833, 0.976932
 3380, 0.916667, 0.970391
 3381, 0.937500, 0.965184
 3382, 0.958333, 0.961400
 3383, 0.979167, 0.959103
 3384, 1.000000, 0.958333
 3385, 1.020833, 0.959103
 3386, 1.041667, 0.961400
 3387, 1.062500, 0.965184
 3388, 1.083333, 0.970391
 3389, 1.104167, 0.976932
 3390, 1.125000, 0.984694
 3391, 1.145833, 0.993545
 3392, 1.166667, 1.003333
 3393, 1.187500, 1.013892
 3394, 1.208333, 1.025040
 3395, 1.229167, 1.036586
 3396, 1.250000, 1.048333
 3397, 1.270833, 1.060081
 3398, 1.291667, 1.071627
 3399, 1.312500, 1.082775
 3400, 1.333333, 1.093333
 3401, 1.354167, 1.103122
 3402, 1.375000, 1.111973
 3403, 1.395833, 1.119735
 3404, 1.416667, 1.126276
 3405, 1.437500, 1.131482
 3406, 1.458333, 1.135267
 3407, 1.479167, 1.137563
 3408, 1.500000, 1.138333
 3409, 1.520833, 1.137563
 3410, 1.541667, 1.135267
 3411, 1.562500, 1.131482
 3412, 1.583333, 1.126276
 3413, 1.604167, 1.119735
 3414, 1.625000, 1.111973
 3415, 1.645833, 1.103122
 3416, 1.666667, 1.093333
 3417, 1.687500, 1.082775
 3418, 1.708333, 1.071627
 3419, 1.729167, 1.060081
 3420, 1.750000, 1.048333
 3421, 1.770833, 1.036586
 3422, 1.791667, 1.025040
 3423, 1.812500, 1.013892
 3424, 1.833333, 1.003333
 3425, 1.854167, 0.993545
 3426, 1.875000, 0.984694
 3427, 1.895833, 0.976932
 3428, 1.916667, 0.970391
 3429, 1.937500, 0.965184
 3430, 1.958333, 0.961400
 3431, 1.979167, 0.959103
 3432, 2.000000, 0.958333
 3433, 2.020833, 0.959103
 3434, 2.041667, 0.961400
 3435, 2.062500, 0.965184
 3436, 2.083333, 0.970391
 3437, 2.104167, 0.976932
 3438, 2.125000, 0.984694
 3439, 2.145833, 0.993545
 3440, 2.166667, 1.003333
 3441, 2.187500, 1.013892
 3442, 2.208333, 1.025040
 3443, 2.229167, 1.036586
 3444, 2.250000, 1.048333
 3445, 2.270833, 1.060081
 3446, 2.291667, 1.071627
 3447, 2.312500, 1.082775
 3448, 2.333333, 1.093333
 3449, 2.354167, 1.103122
 3450, 2.375000, 1.111973
 3451, 2.395833, 1.119735
 3452, 2.416667, 1.126276
 3453, 2.437500, 1.131482
 3454, 2.458333, 1.135267
 3455, 2.479167, 1.137563
 3456, 2.500000, 1.138333
 3457, 2.520833, 1.137563
 3458, 2.541667, 1.135267
 3459, 2.562500, 1.131482
 3460, 2.583333, 1.126276
 3461, 2.604167, 1.119735
 3462, 2.625000, 1.111973
 3463, 2.645833, 1.103122
 3464, 2.666667, 1.093333
 3465, 2.687500, 1.082775
 3466, 2.708333, 1.071627
 3467, 2.729167, 1.060081
 3468, 2.750000, 1.048333
 3469, 2.770833, 1.036586
 3470, 2.791667, 1.025040
 3471, 2.812500, 1.013892
 3472, 2.833333, 1.003333
 3473, 2.854167, 0.993545
 3474, 2.875000, 0.984694
 3475, 2.895833, 0.976932
 3476, 2.916667, 0.970391
 3477, 2.937500, 0.965184
 3478, 2.958333, 0.961400
 3479, 2.979167, 0.959103
 3480, 3.000000, 0.958333
 3481, 0.000000, 1.000000
 3482, 0.020833, 1.000770
 3483, 0.041667, 1.003067
 3484, 0.062500, 1.006851
 3485, 0.083333, 1.012058
 3486, 0.104167, 1.018598
 3487, 0.125000, 1.026360
 3488, 0.145833, 1.035211
 3489, 0.166667, 1.045000
 3490, 0.187500, 1.055558
 3491, 0.208333, 1.066706
 3492, 0.229167, 1.078253
 3493, 0.250000, 1.090000
 3494, 0.270833, 1.101747
 3495, 0.291667, 1.113294
 3496, 0.312500, 1.124442
 3497, 0.333333, 1.135000
 3498, 0.354167, 1.144789
 3499, 0.375000, 1.153640
 3500, 0.395833, 1.161402
 3501, 0.416667, 1.167942
 3502, 0.437500, 1.173149
 3503, 0.458333, 1.176933
 3504, 0.479167, 1.179230
 3505, 0.500000, 1.180000
 3506, 0.520833, 1.179230
 3507, 0.541667, 1.176933
 3508, 0.562500, 1.173149
 3509, 0.583333, 1.167942
 3510, 0.604167, 1.161402
 3511, 0.625000, 1.153640
 3512, 0.645833, 1.144789
 3513, 0.666667, 1.135000
 3514, 0.687500, 1.124442
 3515, 0.708333, 1.113294
 3516, 0.729167, 1.101747
 3517, 0.750000, 1.090000
 3518, 0.770833, 1.078253
 3519, 0.791667, 1.066706
 3520, 0.812500, 1.055558
 3521, 0.833333, 1.045000
 3522, 0.854167, 1.035211
 3523, 0.875000, 1.026360
 3524, 0.895833, 1.018598
 3525, 0.916667, 1.012058
 3526, 0.937500, 1.006851
 3527, 0.958333, 1.003067
 3528, 0.979167, 1.000770
 3529, 1.000000, 1.000000
 3530, 1.020833, 1.000770
 3531, 1.041667, 1.003067
 3532, 1.062500, 1.006851
 3533, 1.083333, 1.012058
 3534, 1.104167, 1.018598
 3535, 1.125000, 1.026360
 3536, 1.145833, 1.035211
 3537, 1.166667, 1.045000
 3538, 1.187500, 1.055558
 3539, 1.208333, 1.066706
 3540, 1.229167, 1.078253
 3541, 1.250000, 1.090000
 3542, 1.270833, 1.101747
 3543, 1.291667, 1.113294
 3544, 1.312500, 1.124442
 3545, 1.333333, 1.135000
 3546, 1.354167, 1.144789
 3547, 1.375000, 1.153640
 3548, 1.395833, 1.161402
 3549, 1.416667, 1.167942
 3550, 1.437500, 1.173149
 3551, 1.458333, 1.176933
 3552, 1.479167, 1.179230
 3553, 1.500000, 1.180000
 3554, 1.520833, 1.179230
 3555, 1.541667, 1.176933
 3556, 1.562500, 1.173149
 3557, 1.583333, 1.167942
 3558, 1.604167, 1.161402
 3559, 1.625000, 1.153640
 3560, 1.645833, 1.144789
 3561, 1.666667, 1.135000
 3562, 1.687500, 1.124442
 3563, 1.708333, 1.113294
 3564, 1.729167, 1.101747
 3565, 1.750000, 1.090000
 3566, 1.770833, 1.078253
 3567, 1.791667, 1.066706
 3568, 1.812500, 1.055558
 3569, 1.833333, 1.045000
 3570, 1.854167, 1.035211
 3571, 1.875000, 1.026360
 3572, 1.895833, 1.018598
 3573, 1.916667, 1.012058
 3574, 1.937500, 1.006851
 3575, 1.958333, 1.003067
 3576, 1.979167, 1.000770
 3577, 2.000000, 1.000000
 3578, 2.020833, 1.000770
 3579, 2.041667, 1.003067
 3580, 2.062500, 1.006851
 3581, 2.083333, 1.012058
 3582, 2.104167, 1.018598
 3583, 2.125000, 1.026360
 3584, 2.145833, 1.035211
 3585, 2.166667, 1.045000
 3586, 2.187500, 1.055558
 3587, 2.208333, 1.066706
 3588, 2.229167, 1.078253
 3589, 2.250000, 1.090000
 3590, 2.270833, 1.101747
 3591, 2.291667, 1.113294
 3592, 2.312500, 1.124442
 3593, 2.333333, 1.135000
 3594, 2.354167, 1.144789
 3595, 2.375000, 1.153640
 3596, 2.395833, 1.161402
 3597, 2.416667, 1.167942
 3598, 2.437500, 1.173149
 3599, 2.458333, 1.176933
 3600, 2.479167, 1.179230
 3601, 2.500000, 1.180000
 3602, 2.520833, 1.179230
 3603, 2.541667, 1.176933
 3604, 2.562500, 1.173149
 3605, 2.583333, 1.167942
 3606, 2.604167, 1.161402
 3607, 2.625000, 1.153640
 3608, 2.645833, 1.144789
 3609, 2.666667, 1.135000
 3610, 2.687500, 1.124442
 3611, 2.708333, 1.113294
 3612, 2.729167, 1.101747
 3613, 2.750000, 1.090000
 3614, 2.770833, 1.078253
 3615, 2.791667, 1.066706
 3616, 2.812500, 1.055558
 3617, 2.833333, 1.045000
 3618, 2.854167, 1.035211
 3619, 2.875000, 1.026360
 3620, 2.895833, 1.018598
 3621, 2.916667, 1.012058
 3622, 2.937500, 1.006851
 3623, 2.958333, 1.003067
 3624, 2.979167, 1.000770
 3625, 3.000000, 1.000000
*ELEMENT, TYPE=CPE4
 1, 1, 2, 147, 146
 2, 2, 3, 148, 147
 3, 3, 4, 149, 148
 4, 4, 5, 150, 149
 5, 5, 6, 151, 150
 6, 6, 7, 152, 151
 7, 7, 8, 153, 152
 8, 8, 9, 154, 153
 9, 9, 10, 155, 154
 10, 10, 11, 156, 155
 11, 11, 12, 157, 156
 12, 12, 13, 158, 157
 13, 13, 14, 159, 158
 14, 14, 15, 160, 159
 15, 15, 16, 161, 160
 16, 16, 17, 162, 161
 17, 17, 18, 163, 162
 18, 18, 19, 164, 163
 19, 19, 20, 165, 164
 20, 20, 21, 166, 165
 21, 21, 22, 167, 166
 22, 22, 23, 168, 167
 23, 23, 24, 169, 168
 24, 24, 25, 170, 169
 25, 25, 26, 171, 170
 26, 26, 27, 172, 171
 27, 27, 28, 173, 172
 28, 28, 29, 174, 173
 29, 29, 30, 175, 174
 30, 30, 31, 176, 175
 31, 31, 32, 177, 176
 32, 32, 33, 178, 177
 33, 33, 34, 179, 178
 34, 34, 35, 180, 179
 35, 35, 36, 181, 180
 36, 36, 37, 182, 181
 37, 37, 38, 183, 182
 38, 38, 39, 184, 183
 39, 39, 40, 185, 184
 40, 40, 41, 186, 185
 41, 41, 42, 187, 186
 42, 42, 43, 188, 187
 43, 43, 44, 189, 188
 44, 44, 45, 190, 189
 45, 45, 46, 191, 190
 46, 46, 47, 192, 191
 47, 47, 48, 193, 192
 48, 48, 49, 194, 193
 49, 49, 50, 195, 194
 50, 50, 51, 196, 195
 51, 51, 52, 197, 196
 52, 52, 53, 198, 197
 53, 53, 54, 199, 198
 54, 54, 55, 200, 199
 55, 55, 56, 201, 200
 56, 56, 57, 202, 201
 57, 57, 58, 203, 202
 58, 58, 59, 204, 203
 59, 59, 60, 205, 204
 60, 60, 61, 206, 205
 61, 61, 62, 207, 206
 62, 62, 63, 208, 207
 63, 63, 64, 209, 208
 64, 64, 65, 210, 209
 65, 65, 66, 211, 210
 66, 66, 67, 212, 211
 67, 67, 68, 213, 212
 68, 68, 69, 214, 213
 69, 69, 70, 215, 214
 70, 70, 71, 216, 215
 71, 71, 72, 217, 216
 72, 72, 73, 218, 217
 73, 73, 74, 219, 218
 74, 74, 75, 220, 219
 75, 75, 76, 221, 220
 76, 76, 77, 222, 221
 77, 77, 78, 223, 222
 78, 78, 79, 224, 223
 79, 79, 80, 225, 224
 80, 80, 81, 226, 225
 81, 81, 82, 227, 226
 82, 82, 83, 228, 227
 83, 83, 84, 229, 228
 84, 84, 85, 230, 229
 85, 85, 86, 231, 230
 86, 86, 87, 232, 231
 87, 87, 88, 233, 232
 88, 88, 89, 234, 233
 89, 89, 90, 235, 234
 90, 90, 91, 236, 235
 91, 91, 92, 237, 236
 92, 92, 93, 238, 237
 93, 93, 94, 239, 238
 94, 94, 95, 240, 239
 95, 95, 96, 241, 240
 96, 96, 97, 242, 241
 97, 97, 98, 243, 242
 98, 98, 99, 244, 243
 99, 99, 100, 245, 244
 100, 100, 101, 246, 245
 101, 101, 102, 247, 246
 102, 102, 103, 248, 247
 103, 103, 104, 249, 248
 104, 104, 105, 250, 249
 105, 105, 106, 251, 250
 106, 106, 107, 252, 251
 107, 107, 108, 253, 252
 108, 108, 109, 254, 253
 109, 109, 110, 255, 254
 110, 110, 111, 256, 255
 111, 111, 112, 257, 256
 112, 112, 113, 258, 257
 113, 113, 114, 259, 258
 114, 114, 115, 260, 259
 115, 115, 116, 261, 260
 116, 116, 117, 262, 261
 117, 117, 118, 263, 262
 118, 118, 119, 264, 263
 119, 119, 120, 265, 264
 120, 120, 121, 266, 265
 121, 121, 122, 267, 266
 122, 122, 123, 268, 267
 123, 123, 124, 269, 268
 124, 124, 125, 270, 269
 125, 125, 126, 271, 270
 126, 126, 127, 272, 271
 127, 127, 128, 273, 272
 128, 128, 129, 274, 273
 129, 129, 130, 275, 274
 130, 130, 131, 276, 275
 131, 131, 132, 277, 276
 132, 132, 133, 278, 277
 133, 133, 134, 279, 278
 134, 134, 135, 280, 279
 135, 135, 136, 281, 280
 136, 136, 137, 282, 281
 137, 137, 138, 283, 282
 138, 138, 139, 284, 283
 139, 139, 140, 285, 284
 140, 140, 141, 286, 285
 141, 141, 142, 287, 286
 142, 142, 143, 288, 287
 143, 143, 144, 289, 288
 144, 144, 145, 290, 289
 145, 146, 147, 292, 291
 146, 147, 148, 293, 292
 147, 148, 149, 294, 293
 148, 149, 150, 295, 294
 149, 150, 151, 296, 295
 150, 151, 152, 297, 296
 151, 152, 153, 298, 297
 152, 153, 154, 299, 298
 153, 154, 155, 300, 299
 154, 155, 156, 301, 300
 155, 156, 157, 302, 301
 156, 157, 158, 303, 302
 157, 158, 159, 304, 303
 158, 159, 160, 305, 304
 159, 160, 161, 306, 305
 160, 161, 162, 307, 306
 161, 162, 163, 308, 307
 162, 163, 164, 309, 308
 163, 164, 165, 310, 309
 164, 165, 166, 311, 310
 165, 166, 167, 312, 311
 166, 167, 168, 313, 312
 167, 168, 169, 314, 313
 168, 169, 170, 315, 314
 169, 170, 171, 316, 315
 170, 171, 172, 317, 316
 171, 172, 173, 318, 317
 172, 173, 174, 319, 318
 173, 174, 175, 320, 319
 174, 175, 176, 321, 320
 175, 176, 177, 322, 321
 176, 177, 178, 323, 322
 177, 178, 179, 324, 323
 178, 179, 180, 325, 324
 179, 180, 181, 326, 325
 180, 181, 182, 327, 326
 181, 182, 183, 328, 327
 182, 183, 184, 329, 328
 183, 184, 185, 330, 329
 184, 185, 186, 331, 330
 185, 186, 187, 332, 331
 186, 187, 188, 333, 332
 187, 188, 189, 334, 333
 188, 189, 190, 335, 334
 189, 190, 191, 336, 335
 190, 191, 192, 337, 336
 191, 192, 193, 338, 337
 192, 193, 194, 339, 338
 193, 194, 195, 340, 339
 194, 195, 196, 341, 340
 195, 196, 197, 342, 341
 196, 197, 198, 343, 342
 197, 198, 199, 344, 343
 198, 199, 200, 345, 344
 199, 200, 201, 346, 345
 200, 201, 202, 347, 346
 201, 202, 203, 348, 347
 202, 203, 204, 349, 348
 203, 204, 205, 350, 349
 204, 205, 206, 351, 350
 205, 206, 207, 352, 351
 206, 207, 208, 353, 352
 207, 208, 209, 354, 353
 208, 209, 210, 355, 354
 209, 210, 211, 356, 355
 210, 211, 212, 357, 356
 211, 212, 213, 358, 357
 212, 213, 214, 359, 358
 213, 214, 215, 360, 359
 214, 215, 216, 361, 360
 215, 216, 217, 362, 361
 216, 217, 218, 363, 362
 217, 218, 219, 364, 363
 218, 219, 220, 365, 364
 219, 220, 221, 366, 365
 220, 221, 222, 367, 366
 221, 222, 223, 368, 367
 222, 223, 224, 369, 368
 223, 224, 225, 370, 369
 224, 225, 226, 371, 370
 225, 226, 227, 372, 371
 226, 227, 228, 373, 372
 227, 228, 229, 374, 373
 228, 229, 230, 375, 374
 229, 230, 231, 376, 375
 230, 231, 232, 377, 376
 231, 232, 233, 378, 377
 232, 233, 234, 379, 378
 233, 234, 235, 380, 379
 234, 235, 236, 381, 380
 235, 236, 237, 382, 381
 236, 237, 238, 383, 382
 237, 238, 239, 384, 383
 238, 239, 240, 385, 384
 239, 240, 241, 386, 385
 240, 241, 242, 387, 386
 241, 242, 243, 388, 387
 242, 243, 244, 389, 388
 243, 244, 245, 390, 389
 244, 245, 246, 391, 390
 245, 246, 247, 392, 391
 246, 247, 248, 393, 392
 247, 248, 249, 394, 393
 248, 249, 250, 395, 394
 249, 250, 251, 396, 395
 250, 251, 252, 397, 396
 251, 252, 253, 398, 397
 252, 253, 254, 399, 398
 253, 254, 255, 400, 399
 254, 255, 256, 401, 400
 255, 256, 257, 402, 401
 256, 257, 258, 403, 402
 257, 258, 259, 404, 403
 258, 259, 260, 405, 404
 259, 260, 261, 406, 405
 260, 261, 262, 407, 406
 261, 262, 263, 408, 407
 262, 263, 264, 409, 408
 263, 264, 265, 410, 409
 264, 265, 266, 411, 410
 265, 266, 267, 412, 411
 266, 267, 268, 413, 412
 267, 268, 269, 414, 413
 268, 269, 270, 415, 414
 269, 270, 271, 416, 415
 270, 271, 272, 417, 416
 271, 272, 273, 418, 417
 272, 273, 274, 419, 418
 273, 274, 275, 420, 419
 274, 275, 276, 421, 420
 275, 276, 277, 422, 421
 276, 277, 278, 423, 422
 277, 278, 279, 424, 423
 278, 279, 280, 425, 424
 279, 280, 281, 426, 425
 280, 281, 282, 427, 426
 281, 282, 283, 428, 427
 282, 283, 284, 429, 428
 283, 284, 285, 430, 429
 284, 285, 286, 431, 430
 285, 286, 287, 432, 431
 286, 287, 288, 433, 432
 287, 288, 289, 434, 433
 288, 289, 290, 435, 434
 289, 291, 292, 437, 436
 290, 292, 293, 438, 437
 291, 293, 294, 439, 438
 292, 294, 295, 440, 439
 293, 295, 296, 441, 440
 294, 296, 297, 442, 441
 295, 297, 298, 443, 442
 296, 298, 299, 444, 443
 297, 299, 300, 445, 444
 298, 300, 301, 446, 445
 299, 301, 302, 447, 446
 300, 302, 303, 448, 447
 301, 303, 304, 449, 448
 302, 304, 305, 450, 449
 303, 305, 306, 451, 450
 304, 306, 307, 452, 451
 305, 307, 308, 453, 452
 306, 308, 309, 454, 453
 307, 309, 310, 455, 454
 308, 310, 311, 456, 455
 309, 311, 312, 457, 456
 310, 312, 313, 458, 457
 311, 313, 314, 459, 458
 312, 314, 315, 460, 459
 313, 315, 316, 461, 460
 314, 316, 317, 462, 461
 315, 317, 318, 463, 462
 316, 318, 319, 464, 463
 317, 319, 320, 465, 464
 318, 320, 321, 466, 465
 319, 321, 322, 467, 466
 320, 322, 323, 468, 467
 321, 323, 324, 469, 468
 322, 324, 325, 470, 469
 323, 325, 326, 471, 470
 324, 326, 327, 472, 471
 325, 327, 328, 473, 472
 326, 328, 329, 474, 473
 327, 329, 330, 475, 474
 328, 330, 331, 476, 475
 329, 331, 332, 477, 476
 330, 332, 333, 478, 477
 331, 333, 334, 479, 478
 332, 334, 335, 480, 479
 333, 335, 336, 481, 480
 334, 336, 337, 482, 481
 335, 337, 338, 483, 482
 336, 338, 339, 484, 483
 337, 339, 340, 485, 484
 338, 340, 341, 486, 485
 339, 341, 342, 487, 486
 340, 342, 343, 488, 487
 341, 343, 344, 489, 488
 342, 344, 345, 490, 489
 343, 345, 346, 491, 490
 344, 346, 347, 492, 491
 345, 347, 348, 493, 492
 346, 348, 349, 494, 493
 347, 349, 350, 495, 494
 348, 350, 351, 496, 495
 349, 351, 352, 497, 496
 350, 352, 353, 498, 497
 351, 353, 354, 499, 498
 352, 354, 355, 500, 499
 353, 355, 356, 501, 500
 354, 356, 357, 502, 501
 355, 357, 358, 503, 502
 356, 358, 359, 504, 503
 357, 359, 360, 505, 504
 358, 360, 361, 506, 505
 359, 361, 362, 507, 506
 360, 362, 363, 508, 507
 361, 363, 364, 509, 508
 362, 364, 365, 510, 509
 363, 365, 366, 511, 510
 364, 366, 367, 512, 511
 365, 367, 368, 513, 512
 366, 368, 369, 514, 513
 367, 369, 370, 515, 514
 368, 370, 371, 516, 515
 369, 371, 372, 517, 516
 370, 372, 373, 518, 517
 371, 373, 374, 519, 518
 372, 374, 375, 520, 519
 373, 375, 376, 521, 520
 374, 376, 377, 522, 521
 375, 377, 378, 523, 522
 376, 378, 379, 524, 523
 377, 379, 380, 525, 524
 378, 380, 381, 526, 525
 379, 381, 382, 527, 526
 380, 382, 383, 528, 527
 381, 383, 384, 529, 528
 382, 384, 385, 530, 529
 383, 385, 386, 531, 530
 384, 386, 387, 532, 531
 385, 387, 388, 533, 532
 386, 388, 389, 534, 533
 387, 389, 390, 535, 534
 388, 390, 391, 536, 535
 389, 391, 392, 537, 536
 390, 392, 393, 538, 537
 391, 393, 394, 539, 538
 392, 394, 395, 540, 539
 393, 395, 396, 541, 540
 394, 396, 397, 542, 541
 395, 397, 398, 543, 542
 396, 398, 399, 544, 543
 397, 399, 400, 545, 544
 398, 400, 401, 546, 545
 399, 401, 402, 547, 546
 400, 402, 403, 548, 547
 401, 403, 404, 549, 548
 402, 404, 405, 550, 549
 403, 405, 406, 551, 550
 404, 406, 407, 552, 551
 405, 407, 408, 553, 552
 406, 408, 409, 554, 553
 407, 409, 410, 555, 554
 408, 410, 411, 556, 555
 409, 411, 412, 557, 556
 410, 412, 413, 558, 557
 411, 413, 414, 559, 558
 412, 414, 415, 560, 559
 413, 415, 416, 561, 560
 414, 416, 417, 562, 561
 415, 417, 418, 563, 562
 416, 418, 419, 564, 563
 417, 419, 420, 565, 564
 418, 420, 421, 566, 565
 419, 421, 422, 567, 566
 420, 422, 423, 568, 567
 421, 423, 424, 569, 568
 422, 424, 425, 570, 569
 423, 425, 426, 571, 570
 424, 426, 427, 572, 571
 425, 427, 428, 573, 572
 426, 428, 429, 574, 573
 427, 429, 430, 575, 574
 428, 430, 431, 576, 575
 429, 431, 432, 577, 576
 430, 432, 433, 578, 577
 431, 433, 434, 579, 578
 432, 434, 435, 580, 579
 433, 436, 437, 582, 581
 434, 437, 438, 583, 582
 435, 438, 439, 584, 583
 436, 439, 440, 585, 584
 437, 440, 441, 586, 585
 438, 441, 442, 587, 586
 439, 442, 443, 588, 587
 440, 443, 444, 589, 588
 441, 444, 445, 590, 589
 442, 445, 446, 591, 590
 443, 446, 447, 592, 591
 444, 447, 448, 593, 592
 445, 448, 449, 594, 593
 446, 449, 450, 595, 594
 447, 450, 451, 596, 595
 448, 451, 452, 597, 596
 449, 452, 453, 598, 597
 450, 453, 454, 599, 598
 451, 454, 455, 600, 599
 452, 455, 456, 601, 600
 453, 456, 457, 602, 601
 454, 457, 458, 603, 602
 455, 458, 459, 604, 603
 456, 459, 460, 605, 604
 457, 460, 461, 606, 605
 458, 461, 462, 607, 606
 459, 462, 463, 608, 607
 460, 463, 464, 609, 608
 461, 464, 465, 610, 609
 462, 465, 466, 611, 610
 463, 466, 467, 612, 611
 464, 467, 468, 613, 612
 465, 468, 469, 614, 613
 466, 469, 470, 615, 614
 467, 470, 471, 616, 615
 468, 471, 472, 617, 616
 469, 472, 473, 618, 617
 470, 473, 474, 619, 618
 471, 474, 475, 620, 619
 472, 475, 476, 621, 620
 473, 476, 477, 622, 621
 474, 477, 478, 623, 622
 475, 478, 479, 624, 623
 476, 479, 480, 625, 624
 477, 480, 481, 626, 625
 478, 481, 482, 627, 626
 479, 482, 483, 628, 627
 480, 483, 484, 629, 628
 481, 484, 485, 630, 629
 482, 485, 486, 631, 630
 483, 486, 487, 632, 631
 484, 487, 488, 633, 632
 485, 488, 489, 634, 633
 486, 489, 490, 635, 634
 487, 490, 491, 636, 635
 488, 491, 492, 637, 636
 489, 492, 493, 638, 637
 490, 493, 494, 639, 638
 491, 494, 495, 640, 639
 492, 495, 496, 641, 640
 493, 496, 497, 642, 641
 494, 497, 498, 643, 642
 495, 498, 499, 644, 643
 496, 499, 500, 645, 644
 497, 500, 501, 646, 645
 498, 501, 502, 647, 646
 499, 502, 503, 648, 647
 500, 503, 504, 649, 648
 501, 504, 505, 650, 649
 502, 505, 506, 651, 650
 503, 506, 507, 652, 651
 504, 507, 508, 653, 652
 505, 508, 509, 654, 653
 506, 509, 510, 655, 654
 507, 510, 511, 656, 655
 508, 511, 512, 657, 656
 509, 512, 513, 658, 657
 510, 513, 514, 659, 658
 511, 514, 515, 660, 659
 512, 515, 516, 661, 660
 513, 516, 517, 662, 661
 514, 517, 518, 663, 662
 515, 518, 519, 664, 663
 516, 519, 520, 665, 664
 517, 520, 521, 666, 665
 518, 521, 522, 667, 666
 519, 522, 523, 668, 667
 520, 523, 524, 669, 668
 521, 524, 525, 670, 669
 522, 525, 526, 671, 670
 523, 526, 527, 672, 671
 524, 527, 528, 673, 672
 525, 528, 529, 674, 673
 526, 529, 530, 675, 674
 527, 530, 531, 676, 675
 528, 531, 532, 677, 676
 529, 532, 533, 678, 677
 530, 533, 534, 679, 678
 531, 534, 535, 680, 679
 532, 535, 536, 681, 680
 533, 536, 537, 682, 681
 534, 537, 538, 683, 682
 535, 538, 539, 684, 683
 536, 539, 540, 685, 684
 537, 540, 541, 686, 685
 538, 541, 542, 687, 686
 539, 542, 543, 688, 687
 540, 543, 544, 689, 688
 541, 544, 545, 690, 689
 542, 545, 546, 691, 690
 543, 546, 547, 692, 691
 544, 547, 548, 693, 692
 545, 548, 549, 694, 693
 546, 549, 550, 695, 694
 547, 550, 551, 696, 695
 548, 551, 552, 697, 696
 549, 552, 553, 698, 697
 550, 553, 554, 699, 698
 551, 554, 555, 700, 699
 552, 555, 556, 701, 700
 553, 556, 557, 702, 701
 554, 557, 558, 703, 702
 555, 558, 559, 704, 703
 556, 559, 560, 705, 704
 557, 560, 561, 706, 705
 558, 561, 562, 707, 706
 559, 562, 563, 708, 707
 560, 563, 564, 709, 708
 561, 564, 565, 710, 709
 562, 565, 566, 711, 710
 563, 566, 567, 712, 711
 564, 567, 568, 713, 712
 565, 568, 569, 714, 713
 566, 569, 570, 715, 714
 567, 570, 571, 716, 715
 568, 571, 572, 717, 716
 569, 572, 573, 718, 717
 570, 573, 574, 719, 718
 571, 574, 575, 720, 719
 572, 575, 576, 721, 720
 573, 576, 577, 722, 721
 574, 577, 578, 723, 722
 575, 578, 579, 724, 723
 576, 579, 580, 725, 724
 577, 581, 582, 727, 726
 578, 582, 583, 728, 727
 579, 583, 584, 729, 728
 580, 584, 585, 730, 729
 581, 585, 586, 731, 730
 582, 586, 587, 732, 731
 583, 587, 588, 733, 732
 584, 588, 589, 734, 733
 585, 589, 590, 735, 734
 586, 590, 591, 736, 735
 587, 591, 592, 737, 736
 588, 592, 593, 738, 737
 589, 593, 594, 739, 738
 590, 594, 595, 740, 739
 591, 595, 596, 741, 740
 592, 596, 597, 742, 741
 593, 597, 598, 743, 742
 594, 598, 599, 744, 743
 595, 599, 600, 745, 744
 596, 600, 601, 746, 745
 597, 601, 602, 747, 746
 598, 602, 603, 748, 747
 599, 603, 604, 749, 748
 600, 604, 605, 750, 749
 601, 605, 606, 751, 750
 602, 606, 607, 752, 751
 603, 607, 608, 753, 752
 604, 608, 609, 754, 753
 605, 609, 610, 755, 754
 606, 610, 611, 756, 755
 607, 611, 612, 757, 756
 608, 612, 613, 758, 757
 609, 613, 614, 759, 758
 610, 614, 615, 760, 759
 611, 615, 616, 761, 760
 612, 616, 617, 762, 761
 613, 617, 618, 763, 762
 614, 618, 619, 764, 763
 615, 619, 620, 765, 764
 616, 620, 621, 766, 765
 617, 621, 622, 767, 766
 618, 622, 623, 768, 767
 619, 623, 624, 769, 768
 620, 624, 625, 770, 769
 621, 625, 626, 771, 770
 622, 626, 627, 772, 771
 623, 627, 628, 773, 772
 624, 628, 629, 774, 773
 625, 629, 630, 775, 774
 626, 630, 631, 776, 775
 627, 631, 632, 777, 776
 628, 632, 633, 778, 777
 629, 633, 634, 779, 778
 630, 634, 635, 780, 779
 631, 635, 636, 781, 780
 632, 636, 637, 782, 781
 633, 637, 638, 783, 782
 634, 638, 639, 784, 783
 635, 639, 640, 785, 784
 636, 640, 641, 786, 785
 637, 641, 642, 787, 786
 638, 642, 643, 788, 787
 639, 643, 644, 789, 788
 640, 644, 645, 790, 789
 641, 645, 646, 791, 790
 642, 646, 647, 792, 791
 643, 647, 648, 793, 792
 644, 648, 649, 794, 793
 645, 649, 650, 795, 794
 646, 650, 651, 796, 795
 647, 651, 652, 797, 796
 648, 652, 653, 798, 797
 649, 653, 654, 799, 798
 650, 654, 655, 800, 799
 651, 655, 656, 801, 800
 652, 656, 657, 802, 801
 653, 657, 658, 803, 802
 654, 658, 659, 804, 803
 655, 659, 660, 805, 804
 656, 660, 661, 806, 805
 657, 661, 662, 807, 806
 658, 662, 663, 808, 807
 659, 663, 664, 809, 808
 660, 664, 665, 810, 809
 661, 665, 666, 811, 810
 662, 666, 667, 812, 811
 663, 667, 668, 813, 812
 664, 668, 669, 814, 813
 665, 669, 670, 815, 814
 666, 670, 671, 816, 815
 667, 671, 672, 817, 816
 668, 672, 673, 818, 817
 669, 673, 674, 819, 818
 670, 674, 675, 820, 819
 671, 675, 676, 821, 820
 672, 676, 677, 822, 821
 673, 677, 678, 823, 822
 674, 678, 679, 824, 823
 675, 679, 680, 825, 824
 676, 680, 681, 826, 825
 677, 681, 682, 827, 826
 678, 682, 683, 828, 827
 679, 683, 684, 829, 828
 680, 684, 685, 830, 829
 681, 685, 686, 831, 830
 682, 686, 687, 832, 831
 683, 687, 688, 833, 832
 684, 688, 689, 834, 833
 685, 689, 690, 835, 834
 686, 690, 691, 836, 835
 687, 691, 692, 837, 836
 688, 692, 693, 838, 837
 689, 693, 694, 839, 838
 690, 694, 695, 840, 839
 691, 695, 696, 841, 840
 692, 696, 697, 842, 841
 693, 697, 698, 843, 842
 694, 698, 699, 844, 843
 695, 699, 700, 845, 844
 696, 700, 701, 846, 845
 697, 701, 702, 847, 846
 698, 702, 703, 848, 847
 699, 703, 704, 849, 848
 700, 704, 705, 850, 849
 701, 705, 706, 851, 850
 702, 706, 707, 852, 851
 703, 707, 708, 853, 852
 704, 708, 709, 854, 853
 705, 709, 710, 855, 854
 706, 710, 711, 856, 855
 707, 711, 712, 857, 856
 708, 712, 713, 858, 857
 709, 713, 714, 859, 858
 710, 714, 715, 860, 859
 711, 715, 716, 861, 860
 712, 716, 717, 862, 861
 713, 717, 718, 863, 862
 714, 718, 719, 864, 863
 715, 719, 720, 865, 864
 716, 720, 721, 866, 865
 717, 721, 722, 867, 866
 718, 722, 723, 868, 867
 719, 723, 724, 869, 868
 720, 724, 725, 870, 869
 721, 726, 727, 872, 871
 722, 727, 728, 873, 872
 723, 728, 729, 874, 873
 724, 729, 730, 875, 874
 725, 730, 731, 876, 875
 726, 731, 732, 877, 876
 727, 732, 733, 878, 877
 728, 733, 734, 879, 878
 729, 734, 735, 880, 879
 730, 735, 736, 881, 880
 731, 736, 737, 882, 881
 732, 737, 738, 883, 882
 733, 738, 739, 884, 883
 734, 739, 740, 885, 884
 735, 740, 741, 886, 885
 736, 741, 742, 887, 886
 737, 742, 743, 888, 887
 738, 743, 744, 889, 888
 739, 744, 745, 890, 889
 740, 745, 746, 891, 890
 741, 746, 747, 892, 891
 742, 747, 748, 893, 892
 743, 748, 749, 894, 893
 744, 749, 750, 895, 894
 745, 750, 751, 896, 895
 746, 751, 752, 897, 896
 747, 752, 753, 898, 897
 748, 753, 754, 899, 898
 749, 754, 755, 900, 899
 750, 755, 756, 901, 900
 751, 756, 757, 902, 901
 752, 757, 758, 903, 902
 753, 758, 759, 904, 903
 754, 759, 760, 905, 904
 755, 760, 761, 906, 905
 756, 761, 762, 907, 906
 757, 762, 763, 908, 907
 758, 763, 764, 909, 908
 759, 764, 765, 910, 909
 760, 765, 766, 911, 910
 761, 766, 767, 912, 911
 762, 767, 768, 913, 912
 763, 768, 769, 914, 913
 764, 769, 770, 915, 914
 765, 770, 771, 916, 915
 766, 771, 772, 917, 916
 767, 772, 773, 918, 917
 768, 773, 774, 919, 918
 769, 774, 775, 920, 919
 770, 775, 776, 921, 920
 771, 776, 777, 922, 921
 772, 777, 778, 923, 922
 773, 778, 779, 924, 923
 774, 779, 780, 925, 924
 775, 780, 781, 926, 925
 776, 781, 782, 927, 926
 777, 782, 783, 928, 927
 778, 783, 784, 929, 928
 779, 784, 785, 930, 929
 780, 785, 786, 931, 930
 781, 786, 787, 932, 931
 782, 787, 788, 933, 932
 783, 788, 789, 934, 933
 784, 789, 790, 935, 934
 785, 790, 791, 936, 935
 786, 791, 792, 937, 936
 787, 792, 793, 938, 937
 788, 793, 794, 939, 938
 789, 794, 795, 940, 939
 790, 795, 796, 941, 940
 791, 796, 797, 942, 941
 792, 797, 798, 943, 942
 793, 798, 799, 944, 943
 794, 799, 800, 945, 944
 795, 800, 801, 946, 945
 796, 801, 802, 947, 946
 797, 802, 803, 948, 947
 798, 803, 804, 949, 948
 799, 804, 805, 950, 949
 800, 805, 806, 951, 950
 801, 806, 807, 952, 951
 802, 807, 808, 953, 952
 803, 808, 809, 954, 953
 804, 809, 810, 955, 954
 805, 810, 811, 956, 955
 806, 811, 812, 957, 956
 807, 812, 813, 958, 957
 808, 813, 814, 959, 958
 809, 814, 815, 960, 959
 810, 815, 816, 961, 960
 811, 816, 817, 962, 961
 812, 817, 818, 963, 962
 813, 818, 819, 964, 963
 814, 819, 820, 965, 964
 815, 820, 821, 966, 965
 816, 821, 822, 967, 966
 817, 822, 823, 968, 967
 818, 823, 824, 969, 968
 819, 824, 825, 970, 969
 820, 825, 826, 971, 970
 821, 826, 827, 972, 971
 822, 827, 828, 973, 972
 823, 828, 829, 974, 973
 824, 829, 830, 975, 974
 825, 830, 831, 976, 975
 826, 831, 832, 977, 976
 827, 832, 833, 978, 977
 828, 833, 834, 979, 978
 829, 834, 835, 980, 979
 830, 835, 836, 981, 980
 831, 836, 837, 982, 981
 832, 837, 838, 983, 982
 833, 838, 839, 984, 983
 834, 839, 840, 985, 984
 835, 840, 841, 986, 985
 836, 841, 842, 987, 986
 837, 842, 843, 988, 987
 838, 843, 844, 989, 988
 839, 844, 845, 990, 989
 840, 845, 846, 991, 990
 841, 846, 847, 992, 991
 842, 847, 848, 993, 992
 843, 848, 849, 994, 993
 844, 849, 850, 995, 994
 845, 850, 851, 996, 995
 846, 851, 852, 997, 996
 847, 852, 853, 998, 997
 848, 853, 854, 999, 998
 849, 854, 855, 1000, 999
 850, 855, 856, 1001, 1000
 851, 856, 857, 1002, 1001
 852, 857, 858, 1003, 1002
 853, 858, 859, 1004, 1003
 854, 859, 860, 1005, 1004
 855, 860, 861, 1006, 1005
 856, 861, 862, 1007, 1006
 857, 862, 863, 1008, 1007
 858, 863, 864, 1009, 1008
 859, 864, 865, 1010, 1009
 860, 865, 866, 1011, 1010
 861, 866, 867, 1012, 1011
 862, 867, 868, 1013, 1012
 863, 868, 869, 1014, 1013
 864, 869, 870, 1015, 1014
 865, 871, 872, 1017, 1016
 866, 872, 873, 1018, 1017
 867, 873, 874, 1019, 1018
 868, 874, 875, 1020, 1019
 869, 875, 876, 1021, 1020
 870, 876, 877, 1022, 1021
 871, 877, 878, 1023, 1022
 872, 878, 879, 1024, 1023
 873, 879, 880, 1025, 1024
 874, 880, 881, 1026, 1025
 875, 881, 882, 1027, 1026
 876, 882, 883, 1028, 1027
 877, 883, 884, 1029, 1028
 878, 884, 885, 1030, 1029
 879, 885, 886, 1031, 1030
 880, 886, 887, 1032, 1031
 881, 887, 888, 1033, 1032
 882, 888, 889, 1034, 1033
 883, 889, 890, 1035, 1034
 884, 890, 891, 1036, 1035
 885, 891, 892, 1037, 1036
 886, 892, 893, 1038, 1037
 887, 893, 894, 1039, 1038
 888, 894, 895, 1040, 1039
 889, 895, 896, 1041, 1040
 890, 896, 897, 1042, 1041
 891, 897, 898, 1043, 1042
 892, 898, 899, 1044, 1043
 893, 899, 900, 1045, 1044
 894, 900, 901, 1046, 1045
 895, 901, 902, 1047, 1046
 896, 902, 903, 1048, 1047
 897, 903, 904, 1049, 1048
 898, 904, 905, 1050, 1049
 899, 905, 906, 1051, 1050
 900, 906, 907, 1052, 1051
 901, 907, 908, 1053, 1052
 902, 908, 909, 1054, 1053
 903, 909, 910, 1055, 1054
 904, 910, 911, 1056, 1055
 905, 911, 912, 1057, 1056
 906, 912, 913, 1058, 1057
 907, 913, 914, 1059, 1058
 908, 914, 915, 1060, 1059
 909, 915, 916, 1061, 1060
 910, 916, 917, 1062, 1061
 911, 917, 918, 1063, 1062
 912, 918, 919, 1064, 1063
 913, 919, 920, 1065, 1064
 914, 920, 921, 1066, 1065
 915, 921, 922, 1067, 1066
 916, 922, 923, 1068, 1067
 917, 923, 924, 1069, 1068
 918, 924, 925, 1070, 1069
 919, 925, 926, 1071, 1070
 920, 926, 927, 1072, 1071
 921, 927, 928, 1073, 1072
 922, 928, 929, 1074, 1073
 923, 929, 930, 1075, 1074
 924, 930, 931, 1076, 1075
 925, 931, 932, 1077, 1076
 926, 932, 933, 1078, 1077
 927, 933, 934, 1079, 1078
 928, 934, 935, 1080, 1079
 929, 935, 936, 1081, 1080
 930, 936, 937, 1082, 1081
 931, 937, 938, 1083, 1082
 932, 938, 939, 1084, 1083
 933, 939, 940, 1085, 1084
 934, 940, 941, 1086, 1085
 935, 941, 942, 1087, 1086
 936, 942, 943, 1088, 1087
 937, 943, 944, 1089, 1088
 938, 944, 945, 1090, 1089
 939, 945, 946, 1091, 1090
 940, 946, 947, 1092, 1091
 941, 947, 948, 1093, 1092
 942, 948, 949, 1094, 1093
 943, 949, 950, 1095, 1094
 944, 950, 951, 1096, 1095
 945, 951, 952, 1097, 1096
 946, 952, 953, 1098, 1097
 947, 953, 954, 1099, 1098
 948, 954, 955, 1100, 1099
 949, 955, 956, 1101, 1100
 950, 956, 957, 1102, 1101
 951, 957, 958, 1103, 1102
 952, 958, 959, 1104, 1103
 953, 959, 960, 1105, 1104
 954, 960, 961, 1106, 1105
 955, 961, 962, 1107, 1106
 956, 962, 963, 1108, 1107
 957, 963, 964, 1109, 1108
 958, 964, 965, 1110, 1109
 959, 965, 966, 1111, 1110
 960, 966, 967, 1112, 1111
 961, 967, 968, 1113, 1112
 962, 968, 969, 1114, 1113
 963, 969, 970, 1115, 1114
 964, 970, 971, 1116, 1115
 965, 971, 972, 1117, 1116
 966, 972, 973, 1118, 1117
 967, 973, 974, 1119, 1118
 968, 974, 975, 1120, 1119
 969, 975, 976, 1121, 1120
 970, 976, 977, 1122, 1121
 971, 977, 978, 1123, 1122
 972, 978, 979, 1124, 1123
 973, 979, 980, 1125, 1124
 974, 980, 981, 1126, 1125
 975, 981, 982, 1127, 1126
 976, 982, 983, 1128, 1127
 977, 983, 984, 1129, 1128
 978, 984, 985, 1130, 1129
 979, 985, 986, 1131, 1130
 980, 986, 987, 1132, 1131
 981, 987, 988, 1133, 1132
 982, 988, 989, 1134, 1133
 983, 989, 990, 1135, 1134
 984, 990, 991, 1136, 1135
 985, 991, 992, 1137, 1136
 986, 992, 993, 1138, 1137
 987, 993, 994, 1139, 1138
 988, 994, 995, 1140, 1139
 989, 995, 996, 1141, 1140
 990, 996, 997, 1142, 1141
 991, 997, 998, 1143, 1142
 992, 998, 999, 1144, 1143
 993, 999, 1000, 1145, 1144
 994, 1000, 1001, 1146, 1145
 995, 1001, 1002, 1147, 1146
 996, 1002, 1003, 1148, 1147
 997, 1003, 1004, 1149, 1148
 998, 1004, 1005, 1150, 1149
 999, 1005, 1006, 1151, 1150
 1000, 1006, 1007, 1152, 1151
 1001, 1007, 1008, 1153, 1152
 1002, 1008, 1009, 1154, 1153
 1003, 1009, 1010, 1155, 1154
 1004, 1010, 1011, 1156, 1155
 1005, 1011, 1012, 1157, 1156
 1006, 1012, 1013, 1158, 1157
 1007, 1013, 1014, 1159, 1158
 1008, 1014, 1015, 1160, 1159
 1009, 1016, 1017, 1162, 1161
 1010, 1017, 1018, 1163, 1162
 1011, 1018, 1019, 1164, 1163
 1012, 1019, 1020, 1165, 1164
 1013, 1020, 1021, 1166, 1165
 1014, 1021, 1022, 1167, 1166
 1015, 1022, 1023, 1168, 1167
 1016, 1023, 1024, 1169, 1168
 1017, 1024, 1025, 1170, 1169
 1018, 1025, 1026, 1171, 1170
 1019, 1026, 1027, 1172, 1171
 1020, 1027, 1028, 1173, 1172
 1021, 1028, 1029, 1174, 1173
 1022, 1029, 1030, 1175, 1174
 1023, 1030, 1031, 1176, 1175
 1024, 1031, 1032, 1177, 1176
 1025, 1032, 1033, 1178, 1177
 1026, 1033, 1034, 1179, 1178
 1027, 1034, 1035, 1180, 1179
 1028, 1035, 1036, 1181, 1180
 1029, 1036, 1037, 1182, 1181
 1030, 1037, 1038, 1183, 1182
 1031, 1038, 1039, 1184, 1183
 1032, 1039, 1040, 1185, 1184
 1033, 1040, 1041, 1186, 1185
 1034, 1041, 1042, 1187, 1186
 1035, 1042, 1043, 1188, 1187
 1036, 1043, 1044, 1189, 1188
 1037, 1044, 1045, 1190, 1189
 1038, 1045, 1046, 1191, 1190
 1039, 1046, 1047, 1192, 1191
 1040, 1047, 1048, 1193, 1192
 1041, 1048, 1049, 1194, 1193
 1042, 1049, 1050, 1195, 1194
 1043, 1050, 1051, 1196, 1195
 1044, 1051, 1052, 1197, 1196
 1045, 1052, 1053, 1198, 1197
 1046, 1053, 1054, 1199, 1198
 1047, 1054, 1055, 1200, 1199
 1048, 1055, 1056, 1201, 1200
 1049, 1056, 1057, 1202, 1201
 1050, 1057, 1058, 1203, 1202
 1051, 1058, 1059, 1204, 1203
 1052, 1059, 1060, 1205, 1204
 1053, 1060, 1061, 1206, 1205
 1054, 1061, 1062, 1207, 1206
 1055, 1062, 1063, 1208, 1207
 1056, 1063, 1064, 1209, 1208
 1057, 1064, 1065, 1210, 1209
 1058, 1065, 1066, 1211, 1210
 1059, 1066, 1067, 1212, 1211
 1060, 1067, 1068, 1213, 1212
 1061, 1068, 1069, 1214, 1213
 1062, 1069, 1070, 1215, 1214
 1063, 1070, 1071, 1216, 1215
 1064, 1071, 1072, 1217, 1216
 1065, 1072, 1073, 1218, 1217
 1066, 1073, 1074, 1219, 1218
 1067, 1074, 1075, 1220, 1219
 1068, 1075, 1076, 1221, 1220
 1069, 1076, 1077, 1222, 1221
 1070, 1077, 1078, 1223, 1222
 1071, 1078, 1079, 1224, 1223
 1072, 1079, 1080, 1225, 1224
 1073, 1080, 1081, 1226, 1225
 1074, 1081, 1082, 1227, 1226
 1075, 1082, 1083, 1228, 1227
 1076, 1083, 1084, 1229, 1228
 1077, 1084, 1085, 1230, 1229
 1078, 1085, 1086, 1231, 1230
 1079, 1086, 1087, 1232, 1231
 1080, 1087, 1088, 1233, 1232
 1081, 1088, 1089, 1234, 1233
 1082, 1089, 1090, 1235, 1234
 1083, 1090, 1091, 1236, 1235
 1084, 1091, 1092, 1237, 1236
 1085, 1092, 1093, 1238, 1237
 1086, 1093, 1094, 1239, 1238
 1087, 1094, 1095, 1240, 1239
 1088, 1095, 1096, 1241, 1240
 1089, 1096, 1097, 1242, 1241
 1090, 1097, 1098, 1243, 1242
 1091, 1098, 1099, 1244, 1243
 1092, 1099, 1100, 1245, 1244
 1093, 1100, 1101, 1246, 1245
 1094, 1101, 1102, 1247, 1246
 1095, 1102, 1103, 1248, 1247
 1096, 1103, 1104, 1249, 1248
 1097, 1104, 1105, 1250, 1249
 1098, 1105, 1106, 1251, 1250
 1099, 1106, 1107, 1252, 1251
 1100, 1107, 1108, 1253, 1252
 1101, 1108, 1109, 1254, 1253
 1102, 1109, 1110, 1255, 1254
 1103, 1110, 1111, 1256, 1255
 1104, 1111, 1112, 1257, 1256
 1105, 1112, 1113, 1258, 1257
 1106, 1113, 1114, 1259, 1258
 1107, 1114, 1115, 1260, 1259
 1108, 1115, 1116, 1261, 1260
 1109, 1116, 1117, 1262, 1261
 1110, 1117, 1118, 1263, 1262
 1111, 1118, 1119, 1264, 1263
 1112, 1119, 1120, 1265, 1264
 1113, 1120, 1121, 1266, 1265
 1114, 1121, 1122, 1267, 1266
 1115, 1122, 1123, 1268, 1267
 1116, 1123, 1124, 1269, 1268
 1117, 1124, 1125, 1270, 1269
 1118, 1125, 1126, 1271, 1270
 1119, 1126, 1127, 1272, 1271
 1120, 1127, 1128, 1273, 1272
 1121, 1128, 1129, 1274, 1273
 1122, 1129, 1130, 1275, 1274
 1123, 1130, 1131, 1276, 1275
 1124, 1131, 1132, 1277, 1276
 1125, 1132, 1133, 1278, 1277
 1126, 1133, 1134, 1279, 1278
 1127, 1134, 1135, 1280, 1279
 1128, 1135, 1136, 1281, 1280
 1129, 1136, 1137, 1282, 1281
 1130, 1137, 1138, 1283, 1282
 1131, 1138, 1139, 1284, 1283
 1132, 1139, 1140, 1285, 1284
 1133, 1140, 1141, 1286, 1285
 1134, 1141, 1142, 1287, 1286
 1135, 1142, 1143, 1288, 1287
 1136, 1143, 1144, 1289, 1288
 1137, 1144, 1145, 1290, 1289
 1138, 1145, 1146, 1291, 1290
 1139, 1146, 1147, 1292, 1291
 1140, 1147, 1148, 1293, 1292
 1141, 1148, 1149, 1294, 1293
 1142, 1149, 1150, 1295, 1294
 1143, 1150, 1151, 1296, 1295
 1144, 1151, 1152, 1297, 1296
 1145, 1152, 1153, 1298, 1297
 1146, 1153, 1154, 1299, 1298
 1147, 1154, 1155, 1300, 1299
 1148, 1155, 1156, 1301, 1300
 1149, 1156, 1157, 1302, 1301
 1150, 1157, 1158, 1303, 1302
 1151, 1158, 1159, 1304, 1303
 1152, 1159, 1160, 1305, 1304
 1153, 1161, 1162, 1307, 1306
 1154, 1162, 1163, 1308, 1307
 1155, 1163, 1164, 1309, 1308
 1156, 1164, 1165, 1310, 1309
 1157, 1165, 1166, 1311, 1310
 1158, 1166, 1167, 1312, 1311
 1159, 1167, 1168, 1313, 1312
 1160, 1168, 1169, 1314, 1313
 1161, 1169, 1170, 1315, 1314
 1162, 1170, 1171, 1316, 1315
 1163, 1171, 1172, 1317, 1316
 1164, 1172, 1173, 1318, 1317
 1165, 1173, 1174, 1319, 1318
 1166, 1174, 1175, 1320, 1319
 1167, 1175, 1176, 1321, 1320
 1168, 1176, 1177, 1322, 1321
 1169, 1177, 1178, 1323, 1322
 1170, 1178, 1179, 1324, 1323
 1171, 1179, 1180, 1325, 1324
 1172, 1180, 1181, 1326, 1325
 1173, 1181, 1182, 1327, 1326
 1174, 1182, 1183, 1328, 1327
 1175, 1183, 1184, 1329, 1328
 1176, 1184, 1185, 1330, 1329
 1177, 1185, 1186, 1331, 1330
 1178, 1186, 1187, 1332, 1331
 1179, 1187, 1188, 1333, 1332
 1180, 1188, 1189, 1334, 1333
 1181, 1189, 1190, 1335, 1334
 1182, 1190, 1191, 1336, 1335
 1183, 1191, 1192, 1337, 1336
 1184, 1192, 1193, 1338, 1337
 1185, 1193, 1194, 1339, 1338
 1186, 1194, 1195, 1340, 1339
 1187, 1195, 1196, 1341, 1340
 1188, 1196, 1197, 1342, 1341
 1189, 1197, 1198, 1343, 1342
 1190, 1198, 1199, 1344, 1343
 1191, 1199, 1200, 1345, 1344
 1192, 1200, 1201, 1346, 1345
 1193, 1201, 1202, 1347, 1346
 1194, 1202, 1203, 1348, 1347
 1195, 1203, 1204, 1349, 1348
 1196, 1204, 1205, 1350, 1349
 1197, 1205, 1206, 1351, 1350
 1198, 1206, 1207, 1352, 1351
 1199, 1207, 1208, 1353, 1352
 1200, 1208, 1209, 1354, 1353
 1201, 1209, 1210, 1355, 1354
 1202, 1210, 1211, 1356, 1355
 1203, 1211, 1212, 1357, 1356
 1204, 1212, 1213, 1358, 1357
 1205, 1213, 1214, 1359, 1358
 1206, 1214, 1215, 1360, 1359
 1207, 1215, 1216, 1361, 1360
 1208, 1216, 1217, 1362, 1361
 1209, 1217, 1218, 1363, 1362
 1210, 1218, 1219, 1364, 1363
 1211, 1219, 1220, 1365, 1364
 1212, 1220, 1221, 1366, 1365
 1213, 1221, 1222, 1367, 1366
 1214, 1222, 1223, 1368, 1367
 1215, 1223, 1224, 1369, 1368
 1216, 1224, 1225, 1370, 1369
 1217, 1225, 1226, 1371, 1370
 1218, 1226, 1227, 1372, 1371
 1219, 1227, 1228, 1373, 1372
 1220, 1228, 1229, 1374, 1373
 1221, 1229, 1230, 1375, 1374
 1222, 1230, 1231, 1376, 1375
 1223, 1231, 1232, 1377, 1376
 1224, 1232, 1233, 1378, 1377
 1225, 1233, 1234, 1379, 1378
 1226, 1234, 1235, 1380, 1379
 1227, 1235, 1236, 1381, 1380
 1228, 1236, 1237, 1382, 1381
 1229, 1237, 1238, 1383, 1382
 1230, 1238, 1239, 1384, 1383
 1231, 1239, 1240, 1385, 1384
 1232, 1240, 1241, 1386, 1385
 1233, 1241, 1242, 1387, 1386
 1234, 1242, 1243, 1388, 1387
 1235, 1243, 1244, 1389, 1388
 1236, 1244, 1245, 1390, 1389
 1237, 1245, 1246, 1391, 1390
 1238, 1246, 1247, 1392, 1391
 1239, 1247, 1248, 1393, 1392
 1240, 1248, 1249, 1394, 1393
 1241, 1249, 1250, 1395, 1394
 1242, 1250, 1251, 1396, 1395
 1243, 1251, 1252, 1397, 1396
 1244, 1252, 1253, 1398, 1397
 1245, 1253, 1254, 1399, 1398
 1246, 1254, 1255, 1400, 1399
 1247, 1255, 1256, 1401, 1400
 1248, 1256, 1257, 1402, 1401
 1249, 1257, 1258, 1403, 1402
 1250, 1258, 1259, 1404, 1403
 1251, 1259, 1260, 1405, 1404
 1252, 1260, 1261, 1406, 1405
 1253, 1261, 1262, 1407, 1406
 1254, 1262, 1263, 1408, 1407
 1255, 1263, 1264, 1409, 1408
 1256, 1264, 1265, 1410, 1409
 1257, 1265, 1266, 1411, 1410
 1258, 1266, 1267, 1412, 1411
 1259, 1267, 1268, 1413, 1412
 1260, 1268, 1269, 1414, 1413
 1261, 1269, 1270, 1415, 1414
 1262, 1270, 1271, 1416, 1415
 1263, 1271, 1272, 1417, 1416
 1264, 1272, 1273, 1418, 1417
 1265, 1273, 1274, 1419, 1418
 1266, 1274, 1275, 1420, 1419
 1267, 1275, 1276, 1421, 1420
 1268, 1276, 1277, 1422, 1421
 1269, 1277, 1278, 1423, 1422
 1270, 1278, 1279, 1424, 1423
 1271, 1279, 1280, 1425, 1424
 1272, 1280, 1281, 1426, 1425
 1273, 1281, 1282, 1427, 1426
 1274, 1282, 1283, 1428, 1427
 1275, 1283, 1284, 1429, 1428
 1276, 1284, 1285, 1430, 1429
 1277, 1285, 1286, 1431, 1430
 1278, 1286, 1287, 1432, 1431
 1279, 1287, 1288, 1433, 1432
 1280, 1288, 1289, 1434, 1433
 1281, 1289, 1290, 1435, 1434
 1282, 1290, 1291, 1436, 1435
 1283, 1291, 1292, 1437, 1436
 1284, 1292, 1293, 1438, 1437
 1285, 1293, 1294, 1439, 1438
 1286, 1294, 1295, 1440, 1439
 1287, 1295, 1296, 1441, 1440
 1288, 1296, 1297, 1442, 1441
 1289, 1297, 1298, 1443, 1442
 1290, 1298, 1299, 1444, 1443
 1291, 1299, 1300, 1445, 1444
 1292, 1300, 1301, 1446, 1445
 1293, 1301, 1302, 1447, 1446
 1294, 1302, 1303, 1448, 1447
 1295, 1303, 1304, 1449, 1448
 1296, 1304, 1305, 1450, 1449
 1297, 1306, 1307, 1452, 1451
 1298, 1307, 1308, 1453, 1452
 1299, 1308, 1309, 1454, 1453
 1300, 1309, 1310, 1455, 1454
 1301, 1310, 1311, 1456, 1455
 1302, 1311, 1312, 1457, 1456
 1303, 1312, 1313, 1458, 1457
 1304, 1313, 1314, 1459, 1458
 1305, 1314, 1315, 1460, 1459
 1306, 1315, 1316, 1461, 1460
 1307, 1316, 1317, 1462, 1461
 1308, 1317, 1318, 1463, 1462
 1309, 1318, 1319, 1464, 1463
 1310, 1319, 1320, 1465, 1464
 1311, 1320, 1321, 1466, 1465
 1312, 1321, 1322, 1467, 1466
 1313, 1322, 1323, 1468, 1467
 1314, 1323, 1324, 1469, 1468
 1315, 1324, 1325, 1470, 1469
 1316, 1325, 1326, 1471, 1470
 1317, 1326, 1327, 1472, 1471
 1318, 1327, 1328, 1473, 1472
 1319, 1328, 1329, 1474, 1473
 1320, 1329, 1330, 1475, 1474
 1321, 1330, 1331, 1476, 1475
 1322, 1331, 1332, 1477, 1476
 1323, 1332, 1333, 1478, 1477
 1324, 1333, 1334, 1479, 1478
 1325, 1334, 1335, 1480, 1479
 1326, 1335, 1336, 1481, 1480
 1327, 1336, 1337, 1482, 1481
 1328, 1337, 1338, 1483, 1482
 1329, 1338, 1339, 1484, 1483
 1330, 1339, 1340, 1485, 1484
 1331, 1340, 1341, 1486, 1485
 1332, 1341, 1342, 1487, 1486
 1333, 1342, 1343, 1488, 1487
 1334, 1343, 1344, 1489, 1488
 1335, 1344, 1345, 1490, 1489
 1336, 1345, 1346, 1491, 1490
 1337, 1346, 1347, 1492, 1491
 1338, 1347, 1348, 1493, 1492
 1339, 1348, 1349, 1494, 1493
 1340, 1349, 1350, 1495, 1494
 1341, 1350, 1351, 1496, 1495
 1342, 1351, 1352, 1497, 1496
 1343, 1352, 1353, 1498, 1497
 1344, 1353, 1354, 1499, 1498
 1345, 1354, 1355, 1500, 1499
 1346, 1355, 1356, 1501, 1500
 1347, 1356, 1357, 1502, 1501
 1348, 1357, 1358, 1503, 1502
 1349, 1358, 1359, 1504, 1503
 1350, 1359, 1360, 1505, 1504
 1351, 1360, 1361, 1506, 1505
 1352, 1361, 1362, 1507, 1506
 1353, 1362, 1363, 1508, 1507
 1354, 1363, 1364, 1509, 1508
 1355, 1364, 1365, 1510, 1509
 1356, 1365, 1366, 1511, 1510
 1357, 1366, 1367, 1512, 1511
 1358, 1367, 1368, 1513, 1512
 1359, 1368, 1369, 1514, 1513
 1360, 1369, 1370, 1515, 1514
 1361, 1370, 1371, 1516, 1515
 1362, 1371, 1372, 1517, 1516
 1363, 1372, 1373, 1518, 1517
 1364, 1373, 1374, 1519, 1518
 1365, 1374, 1375, 1520, 1519
 1366, 1375, 1376, 1521, 1520
 1367, 1376, 1377, 1522, 1521
 1368, 1377, 1378, 1523, 1522
 1369, 1378, 1379, 1524, 1523
 1370, 1379, 1380, 1525, 1524
 1371, 1380, 1381, 1526, 1525
 1372, 1381, 1382, 1527, 1526
 1373, 1382, 1383, 1528, 1527
 1374, 1383, 1384, 1529, 1528
 1375, 1384, 1385, 1530, 1529
 1376, 1385, 1386, 1531, 1530
 1377, 1386, 1387, 1532, 1531
 1378, 1387, 1388, 1533, 1532
 1379, 1388, 1389, 1534, 1533
 1380, 1389, 1390, 1535, 1534
 1381, 1390, 1391, 1536, 1535
 1382, 1391, 1392, 1537, 1536
 1383, 1392, 1393, 1538, 1537
 1384, 1393, 1394, 1539, 1538
 1385, 1394, 1395, 1540, 1539
 1386, 1395, 1396, 1541, 1540
 1387, 1396, 1397, 1542, 1541
 1388, 1397, 1398, 1543, 1542
 1389, 1398, 1399, 1544, 1543
 1390, 1399, 1400, 1545, 1544
 1391, 1400, 1401, 1546, 1545
 1392, 1401, 1402, 1547, 1546
 1393, 1402, 1403, 1548, 1547
 1394, 1403, 1404, 1549, 1548
 1395, 1404, 1405, 1550, 1549
 1396, 1405, 1406, 1551, 1550
 1397, 1406, 1407, 1552, 1551
 1398, 1407, 1408, 1553, 1552
 1399, 1408, 1409, 1554, 1553
 1400, 1409, 1410, 1555, 1554
 1401, 1410, 1411, 1556, 1555
 1402, 1411, 1412, 1557, 1556
 1403, 1412, 1413, 1558, 1557
 1404, 1413, 1414, 1559, 1558
 1405, 1414, 1415, 1560, 1559
 1406, 1415, 1416, 1561, 1560
 1407, 1416, 1417, 1562, 1561
 1408, 1417, 1418, 1563, 1562
 1409, 1418, 1419, 1564, 1563
 1410, 1419, 1420, 1565, 1564
 1411, 1420, 1421, 1566, 1565
 1412, 1421, 1422, 1567, 1566
 1413, 1422, 1423, 1568, 1567
 1414, 1423, 1424, 1569, 1568
 1415, 1424, 1425, 1570, 1569
 1416, 1425, 1426, 1571, 1570
 1417, 1426, 1427, 1572, 1571
 1418, 1427, 1428, 1573, 1572
 1419, 1428, 1429, 1574, 1573
 1420, 1429, 1430, 1575, 1574
 1421, 1430, 1431, 1576, 1575
 1422, 1431, 1432, 1577, 1576
 1423, 1432, 1433, 1578, 1577
 1424, 1433, 1434, 1579, 1578
 1425, 1434, 1435, 1580, 1579
 1426, 1435, 1436, 1581, 1580
 1427, 1436, 1437, 1582, 1581
 1428, 1437, 1438, 1583, 1582
 1429, 1438, 1439, 1584, 1583
 1430, 1439, 1440, 1585, 1584
 1431, 1440, 1441, 1586, 1585
 1432, 1441, 1442, 1587, 1586
 1433, 1442, 1443, 1588, 1587
 1434, 1443, 1444, 1589, 1588
 1435, 1444, 1445, 1590, 1589
 1436, 1445, 1446, 1591, 1590
 1437, 1446, 1447, 1592, 1591
 1438, 1447, 1448, 1593, 1592
 1439, 1448, 1449, 1594, 1593
 1440, 1449, 1450, 1595, 1594
 1441, 1451, 1452, 1597, 1596
 1442, 1452, 1453, 1598, 1597
 1443, 1453, 1454, 1599, 1598
 1444, 1454, 1455, 1600, 1599
 1445, 1455, 1456, 1601, 1600
 1446, 1456, 1457, 1602, 1601
 1447, 1457, 1458, 1603, 1602
 1448, 1458, 1459, 1604, 1603
 1449, 1459, 1460, 1605, 1604
 1450, 1460, 1461, 1606, 1605
 1451, 1461, 1462, 1607, 1606
 1452, 1462, 1463, 1608, 1607
 1453, 1463, 1464, 1609, 1608
 1454, 1464, 1465, 1610, 1609
 1455, 1465, 1466, 1611, 1610
 1456, 1466, 1467, 1612, 1611
 1457, 1467, 1468, 1613, 1612
 1458, 1468, 1469, 1614, 1613
 1459, 1469, 1470, 1615, 1614
 1460, 1470, 1471, 1616, 1615
 1461, 1471, 1472, 1617, 1616
 1462, 1472, 1473, 1618, 1617
 1463, 1473, 1474, 1619, 1618
 1464, 1474, 1475, 1620, 1619
 1465, 1475, 1476, 1621, 1620
 1466, 1476, 1477, 1622, 1621
 1467, 1477, 1478, 1623, 1622
 1468, 1478, 1479, 1624, 1623
 1469, 1479, 1480, 1625, 1624
 1470, 1480, 1481, 1626, 1625
 1471, 1481, 1482, 1627, 1626
 1472, 1482, 1483, 1628, 1627
 1473, 1483, 1484, 1629, 1628
 1474, 1484, 1485, 1630, 1629
 1475, 1485, 1486, 1631, 1630
 1476, 1486, 1487, 1632, 1631
 1477, 1487, 1488, 1633, 1632
 1478, 1488, 1489, 1634, 1633
 1479, 1489, 1490, 1635, 1634
 1480, 1490, 1491, 1636, 1635
 1481, 1491, 1492, 1637, 1636
 1482, 1492, 1493, 1638, 1637
 1483, 1493, 1494, 1639, 1638
 1484, 1494, 1495, 1640, 1639
 1485, 1495, 1496, 1641, 1640
 1486, 1496, 1497, 1642, 1641
 1487, 1497, 1498, 1643, 1642
 1488, 1498, 1499, 1644, 1643
 1489, 1499, 1500, 1645, 1644
 1490, 1500, 1501, 1646, 1645
 1491, 1501, 1502, 1647, 1646
 1492, 1502, 1503, 1648, 1647
 1493, 1503, 1504, 1649, 1648
 1494, 1504, 1505, 1650, 1649
 1495, 1505, 1506, 1651, 1650
 1496, 1506, 1507, 1652, 1651
 1497, 1507, 1508, 1653, 1652
 1498, 1508, 1509, 1654, 1653
 1499, 1509, 1510, 1655, 1654
 1500, 1510, 1511, 1656, 1655
 1501, 1511, 1512, 1657, 1656
 1502, 1512, 1513, 1658, 1657
 1503, 1513, 1514, 1659, 1658
 1504, 1514, 1515, 1660, 1659
 1505, 1515, 1516, 1661, 1660
 1506, 1516, 1517, 1662, 1661
 1507, 1517, 1518, 1663, 1662
 1508, 1518, 1519, 1664, 1663
 1509, 1519, 1520, 1665, 1664
 1510, 1520, 1521, 1666, 1665
 1511, 1521, 1522, 1667, 1666
 1512, 1522, 1523, 1668, 1667
 1513, 1523, 1524, 1669, 1668
 1514, 1524, 1525, 1670, 1669
 1515, 1525, 1526, 1671, 1670
 1516, 1526, 1527, 1672, 1671
 1517, 1527, 1528, 1673, 1672
 1518, 1528, 1529, 1674, 1673
 1519, 1529, 1530, 1675, 1674
 1520, 1530, 1531, 1676, 1675
 1521, 1531, 1532, 1677, 1676
 1522, 1532, 1533, 1678, 1677
 1523, 1533, 1534, 1679, 1678
 1524, 1534, 1535, 1680, 1679
 1525, 1535, 1536, 1681, 1680
 1526, 1536, 1537, 1682, 1681
 1527, 1537, 1538, 1683, 1682
 1528, 1538, 1539, 1684, 1683
 1529, 1539, 1540, 1685, 1684
 1530, 1540, 1541, 1686, 1685
 1531, 1541, 1542, 1687, 1686
 1532, 1542, 1543, 1688, 1687
 1533, 1543, 1544, 1689, 1688
 1534, 1544, 1545, 1690, 1689
 1535, 1545, 1546, 1691, 1690
 1536, 1546, 1547, 1692, 1691
 1537, 1547, 1548, 1693, 1692
 1538, 1548, 1549, 1694, 1693
 1539, 1549, 1550, 1695, 1694
 1540, 1550, 1551, 1696, 1695
 1541, 1551, 1552, 1697, 1696
 1542, 1552, 1553, 1698, 1697
 1543, 1553, 1554, 1699, 1698
 1544, 1554, 1555, 1700, 1699
 1545, 1555, 1556, 1701, 1700
 1546, 1556, 1557, 1702, 1701
 1547, 1557, 1558, 1703, 1702
 1548, 1558, 1559, 1704, 1703
 1549, 1559, 1560, 1705, 1704
 1550, 1560, 1561, 1706, 1705
 1551, 1561, 1562, 1707, 1706
 1552, 1562, 1563, 1708, 1707
 1553, 1563, 1564, 1709, 1708
 1554, 1564, 1565, 1710, 1709
 1555, 1565, 1566, 1711, 1710
 1556, 1566, 1567, 1712, 1711
 1557, 1567, 1568, 1713, 1712
 1558, 1568, 1569, 1714, 1713
 1559, 1569, 1570, 1715, 1714
 1560, 1570, 1571, 1716, 1715
 1561, 1571, 1572, 1717, 1716
 1562, 1572, 1573, 1718, 1717
 1563, 1573, 1574, 1719, 1718
 1564, 1574, 1575, 1720, 1719
 1565, 1575, 1576, 1721, 1720
 1566, 1576, 1577, 1722, 1721
 1567, 1577, 1578, 1723, 1722
 1568, 1578, 1579, 1724, 1723
 1569, 1579, 1580, 1725, 1724
 1570, 1580, 1581, 1726, 1725
 1571, 1581, 1582, 1727, 1726
 1572, 1582, 1583, 1728, 1727
 1573, 1583, 1584, 1729, 1728
 1574, 1584, 1585, 1730, 1729
 1575, 1585, 1586, 1731, 1730
 1576, 1586, 1587, 1732, 1731
 1577, 1587, 1588, 1733, 1732
 1578, 1588, 1589, 1734, 1733
 1579, 1589, 1590, 1735, 1734
 1580, 1590, 1591, 1736, 1735
 1581, 1591, 1592, 1737, 1736
 1582, 1592, 1593, 1738, 1737
 1583, 1593, 1594, 1739, 1738
 1584, 1594, 1595, 1740, 1739
 1585, 1596, 1597, 1742, 1741
 1586, 1597, 1598, 1743, 1742
 1587, 1598, 1599, 1744, 1743
 1588, 1599, 1600, 1745, 1744
 1589, 1600, 1601, 1746, 1745
 1590, 1601, 1602, 1747, 1746
 1591, 1602, 1603, 1748, 1747
 1592, 1603, 1604, 1749, 1748
 1593, 1604, 1605, 1750, 1749
 1594, 1605, 1606, 1751, 1750
 1595, 1606, 1607, 1752, 1751
 1596, 1607, 1608, 1753, 1752
 1597, 1608, 1609, 1754, 1753
 1598, 1609, 1610, 1755, 1754
 1599, 1610, 1611, 1756, 1755
 1600, 1611, 1612, 1757, 1756
 1601, 1612, 1613, 1758, 1757
 1602, 1613, 1614, 1759, 1758
 1603, 1614, 1615, 1760, 1759
 1604, 1615, 1616, 1761, 1760
 1605, 1616, 1617, 1762, 1761
 1606, 1617, 1618, 1763, 1762
 1607, 1618, 1619, 1764, 1763
 1608, 1619, 1620, 1765, 1764
 1609, 1620, 1621, 1766, 1765
 1610, 1621, 1622, 1767, 1766
 1611, 1622, 1623, 1768, 1767
 1612, 1623, 1624, 1769, 1768
 1613, 1624, 1625, 1770, 1769
 1614, 1625, 1626, 1771, 1770
 1615, 1626, 1627, 1772, 1771
 1616, 1627, 1628, 1773, 1772
 1617, 1628, 1629, 1774, 1773
 1618, 1629, 1630, 1775, 1774
 1619, 1630, 1631, 1776, 1775
 1620, 1631, 1632, 1777, 1776
 1621, 1632, 1633, 1778, 1777
 1622, 1633, 1634, 1779, 1778
 1623, 1634, 1635, 1780, 1779
 1624, 1635, 1636, 1781, 1780
 1625, 1636, 1637, 1782, 1781
 1626, 1637, 1638, 1783, 1782
 1627, 1638, 1639, 1784, 1783
 1628, 1639, 1640, 1785, 1784
 1629, 1640, 1641, 1786, 1785
 1630, 1641, 1642, 1787, 1786
 1631, 1642, 1643, 1788, 1787
 1632, 1643, 1644, 1789, 1788
 1633, 1644, 1645, 1790, 1789
 1634, 1645, 1646, 1791, 1790
 1635, 1646, 1647, 1792, 1791
 1636, 1647, 1648, 1793, 1792
 1637, 1648, 1649, 1794, 1793
 1638, 1649, 1650, 1795, 1794
 1639, 1650, 1651, 1796, 1795
 1640, 1651, 1652, 1797, 1796
 1641, 1652, 1653, 1798, 1797
 1642, 1653, 1654, 1799, 1798
 1643, 1654, 1655, 1800, 1799
 1644, 1655, 1656, 1801, 1800
 1645, 1656, 1657, 1802, 1801
 1646, 1657, 1658, 1803, 1802
 1647, 1658, 1659, 1804, 1803
 1648, 1659, 1660, 1805, 1804
 1649, 1660, 1661, 1806, 1805
 1650, 1661, 1662, 1807, 1806
 1651, 1662, 1663, 1808, 1807
 1652, 1663, 1664, 1809, 1808
 1653, 1664, 1665, 1810, 1809
 1654, 1665, 1666, 1811, 1810
 1655, 1666, 1667, 1812, 1811
 1656, 1667, 1668, 1813, 1812
 1657, 1668, 1669, 1814, 1813
 1658, 1669, 1670, 1815, 1814
 1659, 1670, 1671, 1816, 1815
 1660, 1671, 1672, 1817, 1816
 1661, 1672, 1673, 1818, 1817
 1662, 1673, 1674, 1819, 1818
 1663, 1674, 1675, 1820, 1819
 1664, 1675, 1676, 1821, 1820
 1665, 1676, 1677, 1822, 1821
 1666, 1677, 1678, 1823, 1822
 1667, 1678, 1679, 1824, 1823
 1668, 1679, 1680, 1825, 1824
 1669, 1680, 1681, 1826, 1825
 1670, 1681, 1682, 1827, 1826
 1671, 1682, 1683, 1828, 1827
 1672, 1683, 1684, 1829, 1828
 1673, 1684, 1685, 1830, 1829
 1674, 1685, 1686, 1831, 1830
 1675, 1686, 1687, 1832, 1831
 1676, 1687, 1688, 1833, 1832
 1677, 1688, 1689, 1834, 1833
 1678, 1689, 1690, 1835, 1834
 1679, 1690, 1691, 1836, 1835
 1680, 1691, 1692, 1837, 1836
 1681, 1692, 1693, 1838, 1837
 1682, 1693, 1694, 1839, 1838
 1683, 1694, 1695, 1840, 1839
 1684, 1695, 1696, 1841, 1840
 1685, 1696, 1697, 1842, 1841
 1686, 1697, 1698, 1843, 1842
 1687, 1698, 1699, 1844, 1843
 1688, 1699, 1700, 1845, 1844
 1689, 1700, 1701, 1846, 1845
 1690, 1701, 1702, 1847, 1846
 1691, 1702, 1703, 1848, 1847
 1692, 1703, 1704, 1849, 1848
 1693, 1704, 1705, 1850, 1849
 1694, 1705, 1706, 1851, 1850
 1695, 1706, 1707, 1852, 1851
 1696, 1707, 1708, 1853, 1852
 1697, 1708, 1709, 1854, 1853
 1698, 1709, 1710, 1855, 1854
 1699, 1710, 1711, 1856, 1855
 1700, 1711, 1712, 1857, 1856
 1701, 1712, 1713, 1858, 1857
 1702, 1713, 1714, 1859, 1858
 1703, 1714, 1715, 1860, 1859
 1704, 1715, 1716, 1861, 1860
 1705, 1716, 1717, 1862, 1861
 1706, 1717, 1718, 1863, 1862
 1707, 1718, 1719, 1864, 1863
 1708, 1719, 1720, 1865, 1864
 1709, 1720, 1721, 1866, 1865
 1710, 1721, 1722, 1867, 1866
 1711, 1722, 1723, 1868, 1867
 1712, 1723, 1724, 1869, 1868
 1713, 1724, 1725, 1870, 1869
 1714, 1725, 1726, 1871, 1870
 1715, 1726, 1727, 1872, 1871
 1716, 1727, 1728, 1873, 1872
 1717, 1728, 1729, 1874, 1873
 1718, 1729, 1730, 1875, 1874
 1719, 1730, 1731, 1876, 1875
 1720, 1731, 1732, 1877, 1876
 1721, 1732, 1733, 1878, 1877
 1722, 1733, 1734, 1879, 1878
 1723, 1734, 1735, 1880, 1879
 1724, 1735, 1736, 1881, 1880
 1725, 1736, 1737, 1882, 1881
 1726, 1737, 1738, 1883, 1882
 1727, 1738, 1739, 1884, 1883
 1728, 1739, 1740, 1885, 1884
 1729, 1741, 1742, 1887, 1886
 1730, 1742, 1743, 1888, 1887
 1731, 1743, 1744, 1889, 1888
 1732, 1744, 1745, 1890, 1889
 1733, 1745, 1746, 1891, 1890
 1734, 1746, 1747, 1892, 1891
 1735, 1747, 1748, 1893, 1892
 1736, 1748, 1749, 1894, 1893
 1737, 1749, 1750, 1895, 1894
 1738, 1750, 1751, 1896, 1895
 1739, 1751, 1752, 1897, 1896
 1740, 1752, 1753, 1898, 1897
 1741, 1753, 1754, 1899, 1898
 1742, 1754, 1755, 1900, 1899
 1743, 1755, 1756, 1901, 1900
 1744, 1756, 1757, 1902, 1901
 1745, 1757, 1758, 1903, 1902
 1746, 1758, 1759, 1904, 1903
 1747, 1759, 1760, 1905, 1904
 1748, 1760, 1761, 1906, 1905
 1749, 1761, 1762, 1907, 1906
 1750, 1762, 1763, 1908, 1907
 1751, 1763, 1764, 1909, 1908
 1752, 1764, 1765, 1910, 1909
 1753, 1765, 1766, 1911, 1910
 1754, 1766, 1767, 1912, 1911
 1755, 1767, 1768, 1913, 1912
 1756, 1768, 1769, 1914, 1913
 1757, 1769, 1770, 1915, 1914
 1758, 1770, 1771, 1916, 1915
 1759, 1771, 1772, 1917, 1916
 1760, 1772, 1773, 1918, 1917
 1761, 1773, 1774, 1919, 1918
 1762, 1774, 1775, 1920, 1919
 1763, 1775, 1776, 1921, 1920
 1764, 1776, 1777, 1922, 1921
 1765, 1777, 1778, 1923, 1922
 1766, 1778, 1779, 1924, 1923
 1767, 1779, 1780, 1925, 1924
 1768, 1780, 1781, 1926, 1925
 1769, 1781, 1782, 1927, 1926
 1770, 1782, 1783, 1928, 1927
 1771, 1783, 1784, 1929, 1928
 1772, 1784, 1785, 1930, 1929
 1773, 1785, 1786, 1931, 1930
 1774, 1786, 1787, 1932, 1931
 1775, 1787, 1788, 1933, 1932
 1776, 1788, 1789, 1934, 1933
 1777, 1789, 1790, 1935, 1934
 1778, 1790, 1791, 1936, 1935
 1779, 1791, 1792, 1937, 1936
 1780, 1792, 1793, 1938, 1937
 1781, 1793, 1794, 1939, 1938
 1782, 1794, 1795, 1940, 1939
 1783, 1795, 1796, 1941, 1940
 1784, 1796, 1797, 1942, 1941
 1785, 1797, 1798, 1943, 1942
 1786, 1798, 1799, 1944, 1943
 1787, 1799, 1800, 1945, 1944
 1788, 1800, 1801, 1946, 1945
 1789, 1801, 1802, 1947, 1946
 1790, 1802, 1803, 1948, 1947
 1791, 1803, 1804, 1949, 1948
 1792, 1804, 1805, 1950, 1949
 1793, 1805, 1806, 1951, 1950
 1794, 1806, 1807, 1952, 1951
 1795, 1807, 1808, 1953, 1952
 1796, 1808, 1809, 1954, 1953
 1797, 1809, 1810, 1955, 1954
 1798, 1810, 1811, 1956, 1955
 1799, 1811, 1812, 1957, 1956
 1800, 1812, 1813, 1958, 1957
 1801, 1813, 1814, 1959, 1958
 1802, 1814, 1815, 1960, 1959
 1803, 1815, 1816, 1961, 1960
 1804, 1816, 1817, 1962, 1961
 1805, 1817, 1818, 1963, 1962
 1806, 1818, 1819, 1964, 1963
 1807, 1819, 1820, 1965, 1964
 1808, 1820, 1821, 1966, 1965
 1809, 1821, 1822, 1967, 1966
 1810, 1822, 1823, 1968, 1967
 1811, 1823, 1824, 1969, 1968
 1812, 1824, 1825, 1970, 1969
 1813, 1825, 1826, 1971, 1970
 1814, 1826, 1827, 1972, 1971
 1815, 1827, 1828, 1973, 1972
 1816, 1828, 1829, 1974, 1973
 1817, 1829, 1830, 1975, 1974
 1818, 1830, 1831, 1976, 1975
 1819, 1831, 1832, 1977, 1976
 1820, 1832, 1833, 1978, 1977
 1821, 1833, 1834, 1979, 1978
 1822, 1834, 1835, 1980, 1979
 1823, 1835, 1836, 1981, 1980
 1824, 1836, 1837, 1982, 1981
 1825, 1837, 1838, 1983, 1982
 1826, 1838, 1839, 1984, 1983
 1827, 1839, 1840, 1985, 1984
 1828, 1840, 1841, 1986, 1985
 1829, 1841, 1842, 1987, 1986
 1830, 1842, 1843, 1988, 1987
 1831, 1843, 1844, 1989, 1988
 1832, 1844, 1845, 1990, 1989
 1833, 1845, 1846, 1991, 1990
 1834, 1846, 1847, 1992, 1991
 1835, 1847, 1848, 1993, 1992
 1836, 1848, 1849, 1994, 1993
 1837, 1849, 1850, 1995, 1994
 1838, 1850, 1851, 1996, 1995
 1839, 1851, 1852, 1997, 1996
 1840, 1852, 1853, 1998, 1997
 1841, 1853, 1854, 1999, 1998
 1842, 1854, 1855, 2000, 1999
 1843, 1855, 1856, 2001, 2000
 1844, 1856, 1857, 2002, 2001
 1845, 1857, 1858, 2003, 2002
 1846, 1858, 1859, 2004, 2003
 1847, 1859, 1860, 2005, 2004
 1848, 1860, 1861, 2006, 2005
 1849, 1861, 1862, 2007, 2006
 1850, 1862, 1863, 2008, 2007
 1851, 1863, 1864, 2009, 2008
 1852, 1864, 1865, 2010, 2009
 1853, 1865, 1866, 2011, 2010
 1854, 1866, 1867, 2012, 2011
 1855, 1867, 1868, 2013, 2012
 1856, 1868, 1869, 2014, 2013
 1857, 1869, 1870, 2015, 2014
 1858, 1870, 1871, 2016, 2015
 1859, 1871, 1872, 2017, 2016
 1860, 1872, 1873, 2018, 2017
 1861, 1873, 1874, 2019, 2018
 1862, 1874, 1875, 2020, 2019
 1863, 1875, 1876, 2021, 2020
 1864, 1876, 1877, 2022, 2021
 1865, 1877, 1878, 2023, 2022
 1866, 1878, 1879, 2024, 2023
 1867, 1879, 1880, 2025, 2024
 1868, 1880, 1881, 2026, 2025
 1869, 1881, 1882, 2027, 2026
 1870, 1882, 1883, 2028, 2027
 1871, 1883, 1884, 2029, 2028
 1872, 1884, 1885, 2030, 2029
 1873, 1886, 1887, 2032, 2031
 1874, 1887, 1888, 2033, 2032
 1875, 1888, 1889, 2034, 2033
 1876, 1889, 1890, 2035, 2034
 1877, 1890, 1891, 2036, 2035
 1878, 1891, 1892, 2037, 2036
 1879, 1892, 1893, 2038, 2037
 1880, 1893, 1894, 2039, 2038
 1881, 1894, 1895, 2040, 2039
 1882, 1895, 1896, 2041, 2040
 1883, 1896, 1897, 2042, 2041
 1884, 1897, 1898, 2043, 2042
 1885, 1898, 1899, 2044, 2043
 1886, 1899, 1900, 2045, 2044
 1887, 1900, 1901, 2046, 2045
 1888, 1901, 1902, 2047, 2046
 1889, 1902, 1903, 2048, 2047
 1890, 1903, 1904, 2049, 2048
 1891, 1904, 1905, 2050, 2049
 1892, 1905, 1906, 2051, 2050
 1893, 1906, 1907, 2052, 2051
 1894, 1907, 1908, 2053, 2052
 1895, 1908, 1909, 2054, 2053
 1896, 1909, 1910, 2055, 2054
 1897, 1910, 1911, 2056, 2055
 1898, 1911, 1912, 2057, 2056
 1899, 1912, 1913, 2058, 2057
 1900, 1913, 1914, 2059, 2058
 1901, 1914, 1915, 2060, 2059
 1902, 1915, 1916, 2061, 2060
 1903, 1916, 1917, 2062, 2061
 1904, 1917, 1918, 2063, 2062
 1905, 1918, 1919, 2064, 2063
 1906, 1919, 1920, 2065, 2064
 1907, 1920, 1921, 2066, 2065
 1908, 1921, 1922, 2067, 2066
 1909, 1922, 1923, 2068, 2067
 1910, 1923, 1924, 2069, 2068
 1911, 1924, 1925, 2070, 2069
 1912, 1925, 1926, 2071, 2070
 1913, 1926, 1927, 2072, 2071
 1914, 1927, 1928, 2073, 2072
 1915, 1928, 1929, 2074, 2073
 1916, 1929, 1930, 2075, 2074
 1917, 1930, 1931, 2076, 2075
 1918, 1931, 1932, 2077, 2076
 1919, 1932, 1933, 2078, 2077
 1920, 1933, 1934, 2079, 2078
 1921, 1934, 1935, 2080, 2079
 1922, 1935, 1936, 2081, 2080
 1923, 1936, 1937, 2082, 2081
 1924, 1937, 1938, 2083, 2082
 1925, 1938, 1939, 2084, 2083
 1926, 1939, 1940, 2085, 2084
 1927, 1940, 1941, 2086, 2085
 1928, 1941, 1942, 2087, 2086
 1929, 1942, 1943, 2088, 2087
 1930, 1943, 1944, 2089, 2088
 1931, 1944, 1945, 2090, 2089
 1932, 1945, 1946, 2091, 2090
 1933, 1946, 1947, 2092, 2091
 1934, 1947, 1948, 2093, 2092
 1935, 1948, 1949, 2094, 2093
 1936, 1949, 1950, 2095, 2094
 1937, 1950, 1951, 2096, 2095
 1938, 1951, 1952, 2097, 2096
 1939, 1952, 1953, 2098, 2097
 1940, 1953, 1954, 2099, 2098
 1941, 1954, 1955, 2100, 2099
 1942, 1955, 1956, 2101, 2100
 1943, 1956, 1957, 2102, 2101
 1944, 1957, 1958, 2103, 2102
 1945, 1958, 1959, 2104, 2103
 1946, 1959, 1960, 2105, 2104
 1947, 1960, 1961, 2106, 2105
 1948, 1961, 1962, 2107, 2106
 1949, 1962, 1963, 2108, 2107
 1950, 1963, 1964, 2109, 2108
 1951, 1964, 1965, 2110, 2109
 1952, 1965, 1966, 2111, 2110
 1953, 1966, 1967, 2112, 2111
 1954, 1967, 1968, 2113, 2112
 1955, 1968, 1969, 2114, 2113
 1956, 1969, 1970, 2115, 2114
 1957, 1970, 1971, 2116, 2115
 1958, 1971, 1972, 2117, 2116
 1959, 1972, 1973, 2118, 2117
 1960, 1973, 1974, 2119, 2118
 1961, 1974, 1975, 2120, 2119
 1962, 1975, 1976, 2121, 2120
 1963, 1976, 1977, 2122, 2121
 1964, 1977, 1978, 2123, 2122
 1965, 1978, 1979, 2124, 2123
 1966, 1979, 1980, 2125, 2124
 1967, 1980, 1981, 2126, 2125
 1968, 1981, 1982, 2127, 2126
 1969, 1982, 1983, 2128, 2127
 1970, 1983, 1984, 2129, 2128
 1971, 1984, 1985, 2130, 2129
 1972, 1985, 1986, 2131, 2130
 1973, 1986, 1987, 2132, 2131
 1974, 1987, 1988, 2133, 2132
 1975, 1988, 1989, 2134, 2133
 1976, 1989, 1990, 2135, 2134
 1977, 1990, 1991, 2136, 2135
 1978, 1991, 1992, 2137, 2136
 1979, 1992, 1993, 2138, 2137
 1980, 1993, 1994, 2139, 2138
 1981, 1994, 1995, 2140, 2139
 1982, 1995, 1996, 2141, 2140
 1983, 1996, 1997, 2142, 2141
 1984, 1997, 1998, 2143, 2142
 1985, 1998, 1999, 2144, 2143
 1986, 1999, 2000, 2145, 2144
 1987, 2000, 2001, 2146, 2145
 1988, 2001, 2002, 2147, 2146
 1989, 2002, 2003, 2148, 2147
 1990, 2003, 2004, 2149, 2148
 1991, 2004, 2005, 2150, 2149
 1992, 2005, 2006, 2151, 2150
 1993, 2006, 2007, 2152, 2151
 1994, 2007, 2008, 2153, 2152
 1995, 2008, 2009, 2154, 2153
 1996, 2009, 2010, 2155, 2154
 1997, 2010, 2011, 2156, 2155
 1998, 2011, 2012, 2157, 2156
 1999, 2012, 2013, 2158, 2157
 2000, 2013, 2014, 2159, 2158
 2001, 2014, 2015, 2160, 2159
 2002, 2015, 2016, 2161, 2160
 2003, 2016, 2017, 2162, 2161
 2004, 2017, 2018, 2163, 2162
 2005, 2018, 2019, 2164, 2163
 2006, 2019, 2020, 2165, 2164
 2007, 2020, 2021, 2166, 2165
 2008, 2021, 2022, 2167, 2166
 2009, 2022, 2023, 2168, 2167
 2010, 2023, 2024, 2169, 2168
 2011, 2024, 2025, 2170, 2169
 2012, 2025, 2026, 2171, 2170
 2013, 2026, 2027, 2172, 2171
 2014, 2027, 2028, 2173, 2172
 2015, 2028, 2029, 2174, 2173
 2016, 2029, 2030, 2175, 2174
 2017, 2031, 2032, 2177, 2176
 2018, 2032, 2033, 2178, 2177
 2019, 2033, 2034, 2179, 2178
 2020, 2034, 2035, 2180, 2179
 2021, 2035, 2036, 2181, 2180
 2022, 2036, 2037, 2182, 2181
 2023, 2037, 2038, 2183, 2182
 2024, 2038, 2039, 2184, 2183
 2025, 2039, 2040, 2185, 2184
 2026, 2040, 2041, 2186, 2185
 2027, 2041, 2042, 2187, 2186
 2028, 2042, 2043, 2188, 2187
 2029, 2043, 2044, 2189, 2188
 2030, 2044, 2045, 2190, 2189
 2031, 2045, 2046, 2191, 2190
 2032, 2046, 2047, 2192, 2191
 2033, 2047, 2048, 2193, 2192
 2034, 2048, 2049, 2194, 2193
 2035, 2049, 2050, 2195, 2194
 2036, 2050, 2051, 2196, 2195
 2037, 2051, 2052, 2197, 2196
 2038, 2052, 2053, 2198, 2197
 2039, 2053, 2054, 2199, 2198
 2040, 2054, 2055, 2200, 2199
 2041, 2055, 2056, 2201, 2200
 2042, 2056, 2057, 2202, 2201
 2043, 2057, 2058, 2203, 2202
 2044, 2058, 2059, 2204, 2203
 2045, 2059, 2060, 2205, 2204
 2046, 2060, 2061, 2206, 2205
 2047, 2061, 2062, 2207, 2206
 2048, 2062, 2063, 2208, 2207
 2049, 2063, 2064, 2209, 2208
 2050, 2064, 2065, 2210, 2209
 2051, 2065, 2066, 2211, 2210
 2052, 2066, 2067, 2212, 2211
 2053, 2067, 2068, 2213, 2212
 2054, 2068, 2069, 2214, 2213
 2055, 2069, 2070, 2215, 2214
 2056, 2070, 2071, 2216, 2215
 2057, 2071, 2072, 2217, 2216
 2058, 2072, 2073, 2218, 2217
 2059, 2073, 2074, 2219, 2218
 2060, 2074, 2075, 2220, 2219
 2061, 2075, 2076, 2221, 2220
 2062, 2076, 2077, 2222, 2221
 2063, 2077, 2078, 2223, 2222
 2064, 2078, 2079, 2224, 2223
 2065, 2079, 2080, 2225, 2224
 2066, 2080, 2081, 2226, 2225
 2067, 2081, 2082, 2227, 2226
 2068, 2082, 2083, 2228, 2227
 2069, 2083, 2084, 2229, 2228
 2070, 2084, 2085, 2230, 2229
 2071, 2085, 2086, 2231, 2230
 2072, 2086, 2087, 2232, 2231
 2073, 2087, 2088, 2233, 2232
 2074, 2088, 2089, 2234, 2233
 2075, 2089, 2090, 2235, 2234
 2076, 2090, 2091, 2236, 2235
 2077, 2091, 2092, 2237, 2236
 2078, 2092, 2093, 2238, 2237
 2079, 2093, 2094, 2239, 2238
 2080, 2094, 2095, 2240, 2239
 2081, 2095, 2096, 2241, 2240
 2082, 2096, 2097, 2242, 2241
 2083, 2097, 2098, 2243, 2242
 2084, 2098, 2099, 2244, 2243
 2085, 2099, 2100, 2245, 2244
 2086, 2100, 2101, 2246, 2245
 2087, 2101, 2102, 2247, 2246
 2088, 2102, 2103, 2248, 2247
 2089, 2103, 2104, 2249, 2248
 2090, 2104, 2105, 2250, 2249
 2091, 2105, 2106, 2251, 2250
 2092, 2106, 2107, 2252, 2251
 2093, 2107, 2108, 2253, 2252
 2094, 2108, 2109, 2254, 2253
 2095, 2109, 2110, 2255, 2254
 2096, 2110, 2111, 2256, 2255
 2097, 2111, 2112, 2257, 2256
 2098, 2112, 2113, 2258, 2257
 2099, 2113, 2114, 2259, 2258
 2100, 2114, 2115, 2260, 2259
 2101, 2115, 2116, 2261, 2260
 2102, 2116, 2117, 2262, 2261
 2103, 2117, 2118, 2263, 2262
 2104, 2118, 2119, 2264, 2263
 2105, 2119, 2120, 2265, 2264
 2106, 2120, 2121, 2266, 2265
 2107, 2121, 2122, 2267, 2266
 2108, 2122, 2123, 2268, 2267
 2109, 2123, 2124, 2269, 2268
 2110, 2124, 2125, 2270, 2269
 2111, 2125, 2126, 2271, 2270
 2112, 2126, 2127, 2272, 2271
 2113, 2127, 2128, 2273, 2272
 2114, 2128, 2129, 2274, 2273
 2115, 2129, 2130, 2275, 2274
 2116, 2130, 2131, 2276, 2275
 2117, 2131, 2132, 2277, 2276
 2118, 2132, 2133, 2278, 2277
 2119, 2133, 2134, 2279, 2278
 2120, 2134, 2135, 2280, 2279
 2121, 2135, 2136, 2281, 2280
 2122, 2136, 2137, 2282, 2281
 2123, 2137, 2138, 2283, 2282
 2124, 2138, 2139, 2284, 2283
 2125, 2139, 2140, 2285, 2284
 2126, 2140, 2141, 2286, 2285
 2127, 2141, 2142, 2287, 2286
 2128, 2142, 2143, 2288, 2287
 2129, 2143, 2144, 2289, 2288
 2130, 2144, 2145, 2290, 2289
 2131, 2145, 2146, 2291, 2290
 2132, 2146, 2147, 2292, 2291
 2133, 2147, 2148, 2293, 2292
 2134, 2148, 2149, 2294, 2293
 2135, 2149, 2150, 2295, 2294
 2136, 2150, 2151, 2296, 2295
 2137, 2151, 2152, 2297, 2296
 2138, 2152, 2153, 2298, 2297
 2139, 2153, 2154, 2299, 2298
 2140, 2154, 2155, 2300, 2299
 2141, 2155, 2156, 2301, 2300
 2142, 2156, 2157, 2302, 2301
 2143, 2157, 2158, 2303, 2302
 2144, 2158, 2159, 2304, 2303
 2145, 2159, 2160, 2305, 2304
 2146, 2160, 2161, 2306, 2305
 2147, 2161, 2162, 2307, 2306
 2148, 2162, 2163, 2308, 2307
 2149, 2163, 2164, 2309, 2308
 2150, 2164, 2165, 2310, 2309
 2151, 2165, 2166, 2311, 2310
 2152, 2166, 2167, 2312, 2311
 2153, 2167, 2168, 2313, 2312
 2154, 2168, 2169, 2314, 2313
 2155, 2169, 2170, 2315, 2314
 2156, 2170, 2171, 2316, 2315
 2157, 2171, 2172, 2317, 2316
 2158, 2172, 2173, 2318, 2317
 2159, 2173, 2174, 2319, 2318
 2160, 2174, 2175, 2320, 2319
 2161, 2176, 2177, 2322, 2321
 2162, 2177, 2178, 2323, 2322
 2163, 2178, 2179, 2324, 2323
 2164, 2179, 2180, 2325, 2324
 2165, 2180, 2181, 2326, 2325
 2166, 2181, 2182, 2327, 2326
 2167, 2182, 2183, 2328, 2327
 2168, 2183, 2184, 2329, 2328
 2169, 2184, 2185, 2330, 2329
 2170, 2185, 2186, 2331, 2330
 2171, 2186, 2187, 2332, 2331
 2172, 2187, 2188, 2333, 2332
 2173, 2188, 2189, 2334, 2333
 2174, 2189, 2190, 2335, 2334
 2175, 2190, 2191, 2336, 2335
 2176, 2191, 2192, 2337, 2336
 2177, 2192, 2193, 2338, 2337
 2178, 2193, 2194, 2339, 2338
 2179, 2194, 2195, 2340, 2339
 2180, 2195, 2196, 2341, 2340
 2181, 2196, 2197, 2342, 2341
 2182, 2197, 2198, 2343, 2342
 2183, 2198, 2199, 2344, 2343
 2184, 2199, 2200, 2345, 2344
 2185, 2200, 2201, 2346, 2345
 2186, 2201, 2202, 2347, 2346
 2187, 2202, 2203, 2348, 2347
 2188, 2203, 2204, 2349, 2348
 2189, 2204, 2205, 2350, 2349
 2190, 2205, 2206, 2351, 2350
 2191, 2206, 2207, 2352, 2351
 2192, 2207, 2208, 2353, 2352
 2193, 2208, 2209, 2354, 2353
 2194, 2209, 2210, 2355, 2354
 2195, 2210, 2211, 2356, 2355
 2196, 2211, 2212, 2357, 2356
 2197, 2212, 2213, 2358, 2357
 2198, 2213, 2214, 2359, 2358
 2199, 2214, 2215, 2360, 2359
 2200, 2215, 2216, 2361, 2360
 2201, 2216, 2217, 2362, 2361
 2202, 2217, 2218, 2363, 2362
 2203, 2218, 2219, 2364, 2363
 2204, 2219, 2220, 2365, 2364
 2205, 2220, 2221, 2366, 2365
 2206, 2221, 2222, 2367, 2366
 2207, 2222, 2223, 2368, 2367
 2208, 2223, 2224, 2369, 2368
 2209, 2224, 2225, 2370, 2369
 2210, 2225, 2226, 2371, 2370
 2211, 2226, 2227, 2372, 2371
 2212, 2227, 2228, 2373, 2372
 2213, 2228, 2229, 2374, 2373
 2214, 2229, 2230, 2375, 2374
 2215, 2230, 2231, 2376, 2375
 2216, 2231, 2232, 2377, 2376
 2217, 2232, 2233, 2378, 2377
 2218, 2233, 2234, 2379, 2378
 2219, 2234, 2235, 2380, 2379
 2220, 2235, 2236, 2381, 2380
 2221, 2236, 2237, 2382, 2381
 2222, 2237, 2238, 2383, 2382
 2223, 2238, 2239, 2384, 2383
 2224, 2239, 2240, 2385, 2384
 2225, 2240, 2241, 2386, 2385
 2226, 2241, 2242, 2387, 2386
 2227, 2242, 2243, 2388, 2387
 2228, 2243, 2244, 2389, 2388
 2229, 2244, 2245, 2390, 2389
 2230, 2245, 2246, 2391, 2390
 2231, 2246, 2247, 2392, 2391
 2232, 2247, 2248, 2393, 2392
 2233, 2248, 2249, 2394, 2393
 2234, 2249, 2250, 2395, 2394
 2235, 2250, 2251, 2396, 2395
 2236, 2251, 2252, 2397, 2396
 2237, 2252, 2253, 2398, 2397
 2238, 2253, 2254, 2399, 2398
 2239, 2254, 2255, 2400, 2399
 2240, 2255, 2256, 2401, 2400
 2241, 2256, 2257, 2402, 2401
 2242, 2257, 2258, 2403, 2402
 2243, 2258, 2259, 2404, 2403
 2244, 2259, 2260, 2405, 2404
 2245, 2260, 2261, 2406, 2405
 2246, 2261, 2262, 2407, 2406
 2247, 2262, 2263, 2408, 2407
 2248, 2263, 2264, 2409, 2408
 2249, 2264, 2265, 2410, 2409
 2250, 2265, 2266, 2411, 2410
 2251, 2266, 2267, 2412, 2411
 2252, 2267, 2268, 2413, 2412
 2253, 2268, 2269, 2414, 2413
 2254, 2269, 2270, 2415, 2414
 2255, 2270, 2271, 2416, 2415
 2256, 2271, 2272, 2417, 2416
 2257, 2272, 2273, 2418, 2417
 2258, 2273, 2274, 2419, 2418
 2259, 2274, 2275, 2420, 2419
 2260, 2275, 2276, 2421, 2420
 2261, 2276, 2277, 2422, 2421
 2262, 2277, 2278, 2423, 2422
 2263, 2278, 2279, 2424, 2423
 2264, 2279, 2280, 2425, 2424
 2265, 2280, 2281, 2426, 2425
 2266, 2281, 2282, 2427, 2426
 2267, 2282, 2283, 2428, 2427
 2268, 2283, 2284, 2429, 2428
 2269, 2284, 2285, 2430, 2429
 2270, 2285, 2286, 2431, 2430
 2271, 2286, 2287, 2432, 2431
 2272, 2287, 2288, 2433, 2432
 2273, 2288, 2289, 2434, 2433
 2274, 2289, 2290, 2435, 2434
 2275, 2290, 2291, 2436, 2435
 2276, 2291, 2292, 2437, 2436
 2277, 2292, 2293, 2438, 2437
 2278, 2293, 2294, 2439, 2438
 2279, 2294, 2295, 2440, 2439
 2280, 2295, 2296, 2441, 2440
 2281, 2296, 2297, 2442, 2441
 2282, 2297, 2298, 2443, 2442
 2283, 2298, 2299, 2444, 2443
 2284, 2299, 2300, 2445, 2444
 2285, 2300, 2301, 2446, 2445
 2286, 2301, 2302, 2447, 2446
 2287, 2302, 2303, 2448, 2447
 2288, 2303, 2304, 2449, 2448
 2289, 2304, 2305, 2450, 2449
 2290, 2305, 2306, 2451, 2450
 2291, 2306, 2307, 2452, 2451
 2292, 2307, 2308, 2453, 2452
 2293, 2308, 2309, 2454, 2453
 2294, 2309, 2310, 2455, 2454
 2295, 2310, 2311, 2456, 2455
 2296, 2311, 2312, 2457, 2456
 2297, 2312, 2313, 2458, 2457
 2298, 2313, 2314, 2459, 2458
 2299, 2314, 2315, 2460, 2459
 2300, 2315, 2316, 2461, 2460
 2301, 2316, 2317, 2462, 2461
 2302, 2317, 2318, 2463, 2462
 2303, 2318, 2319, 2464, 2463
 2304, 2319, 2320, 2465, 2464
 2305, 2321, 2322, 2467, 2466
 2306, 2322, 2323, 2468, 2467
 2307, 2323, 2324, 2469, 2468
 2308, 2324, 2325, 2470, 2469
 2309, 2325, 2326, 2471, 2470
 2310, 2326, 2327, 2472, 2471
 2311, 2327, 2328, 2473, 2472
 2312, 2328, 2329, 2474, 2473
 2313, 2329, 2330, 2475, 2474
 2314, 2330, 2331, 2476, 2475
 2315, 2331, 2332, 2477, 2476
 2316, 2332, 2333, 2478, 2477
 2317, 2333, 2334, 2479, 2478
 2318, 2334, 2335, 2480, 2479
 2319, 2335, 2336, 2481, 2480
 2320, 2336, 2337, 2482, 2481
 2321, 2337, 2338, 2483, 2482
 2322, 2338, 2339, 2484, 2483
 2323, 2339, 2340, 2485, 2484
 2324, 2340, 2341, 2486, 2485
 2325, 2341, 2342, 2487, 2486
 2326, 2342, 2343, 2488, 2487
 2327, 2343, 2344, 2489, 2488
 2328, 2344, 2345, 2490, 2489
 2329, 2345, 2346, 2491, 2490
 2330, 2346, 2347, 2492, 2491
 2331, 2347, 2348, 2493, 2492
 2332, 2348, 2349, 2494, 2493
 2333, 2349, 2350, 2495, 2494
 2334, 2350, 2351, 2496, 2495
 2335, 2351, 2352, 2497, 2496
 2336, 2352, 2353, 2498, 2497
 2337, 2353, 2354, 2499, 2498
 2338, 2354, 2355, 2500, 2499
 2339, 2355, 2356, 2501, 2500
 2340, 2356, 2357, 2502, 2501
 2341, 2357, 2358, 2503, 2502
 2342, 2358, 2359, 2504, 2503
 2343, 2359, 2360, 2505, 2504
 2344, 2360, 2361, 2506, 2505
 2345, 2361, 2362, 2507, 2506
 2346, 2362, 2363, 2508, 2507
 2347, 2363, 2364, 2509, 2508
 2348, 2364, 2365, 2510, 2509
 2349, 2365, 2366, 2511, 2510
 2350, 2366, 2367, 2512, 2511
 2351, 2367, 2368, 2513, 2512
 2352, 2368, 2369, 2514, 2513
 2353, 2369, 2370, 2515, 2514
 2354, 2370, 2371, 2516, 2515
 2355, 2371, 2372, 2517, 2516
 2356, 2372, 2373, 2518, 2517
 2357, 2373, 2374, 2519, 2518
 2358, 2374, 2375, 2520, 2519
 2359, 2375, 2376, 2521, 2520
 2360, 2376, 2377, 2522, 2521
 2361, 2377, 2378, 2523, 2522
 2362, 2378, 2379, 2524, 2523
 2363, 2379, 2380, 2525, 2524
 2364, 2380, 2381, 2526, 2525
 2365, 2381, 2382, 2527, 2526
 2366, 2382, 2383, 2528, 2527
 2367, 2383, 2384, 2529, 2528
 2368, 2384, 2385, 2530, 2529
 2369, 2385, 2386, 2531, 2530
 2370, 2386, 2387, 2532, 2531
 2371, 2387, 2388, 2533, 2532
 2372, 2388, 2389, 2534, 2533
 2373, 2389, 2390, 2535, 2534
 2374, 2390, 2391, 2536, 2535
 2375, 2391, 2392, 2537, 2536
 2376, 2392, 2393, 2538, 2537
 2377, 2393, 2394, 2539, 2538
 2378, 2394, 2395, 2540, 2539
 2379, 2395, 2396, 2541, 2540
 2380, 2396, 2397, 2542, 2541
 2381, 2397, 2398, 2543, 2542
 2382, 2398, 2399, 2544, 2543
 2383, 2399, 2400, 2545, 2544
 2384, 2400, 2401, 2546, 2545
 2385, 2401, 2402, 2547, 2546
 2386, 2402, 2403, 2548, 2547
 2387, 2403, 2404, 2549, 2548
 2388, 2404, 2405, 2550, 2549
 2389, 2405, 2406, 2551, 2550
 2390, 2406, 2407, 2552, 2551
 2391, 2407, 2408, 2553, 2552
 2392, 2408, 2409, 2554, 2553
 2393, 2409, 2410, 2555, 2554
 2394, 2410, 2411, 2556, 2555
 2395, 2411, 2412, 2557, 2556
 2396, 2412, 2413, 2558, 2557
 2397, 2413, 2414, 2559, 2558
 2398, 2414, 2415, 2560, 2559
 2399, 2415, 2416, 2561, 2560
 2400, 2416, 2417, 2562, 2561
 2401, 2417, 2418, 2563, 2562
 2402, 2418, 2419, 2564, 2563
 2403, 2419, 2420, 2565, 2564
 2404, 2420, 2421, 2566, 2565
 2405, 2421, 2422, 2567, 2566
 2406, 2422, 2423, 2568, 2567
 2407, 2423, 2424, 2569, 2568
 2408, 2424, 2425, 2570, 2569
 2409, 2425, 2426, 2571, 2570
 2410, 2426, 2427, 2572, 2571
 2411, 2427, 2428, 2573, 2572
 2412, 2428, 2429, 2574, 2573
 2413, 2429, 2430, 2575, 2574
 2414, 2430, 2431, 2576, 2575
 2415, 2431, 2432, 2577, 2576
 2416, 2432, 2433, 2578, 2577
 2417, 2433, 2434, 2579, 2578
 2418, 2434, 2435, 2580, 2579
 2419, 2435, 2436, 2581, 2580
 2420, 2436, 2437, 2582, 2581
 2421, 2437, 2438, 2583, 2582
 2422, 2438, 2439, 2584, 2583
 2423, 2439, 2440, 2585, 2584
 2424, 2440, 2441, 2586, 2585
 2425, 2441, 2442, 2587, 2586
 2426, 2442, 2443, 2588, 2587
 2427, 2443, 2444, 2589, 2588
 2428, 2444, 2445, 2590, 2589
 2429, 2445, 2446, 2591, 2590
 2430, 2446, 2447, 2592, 2591
 2431, 2447, 2448, 2593, 2592
 2432, 2448, 2449, 2594, 2593
 2433, 2449, 2450, 2595, 2594
 2434, 2450, 2451, 2596, 2595
 2435, 2451, 2452, 2597, 2596
 2436, 2452, 2453, 2598, 2597
 2437, 2453, 2454, 2599, 2598
 2438, 2454, 2455, 2600, 2599
 2439, 2455, 2456, 2601, 2600
 2440, 2456, 2457, 2602, 2601
 2441, 2457, 2458, 2603, 2602
 2442, 2458, 2459, 2604, 2603
 2443, 2459, 2460, 2605, 2604
 2444, 2460, 2461, 2606, 2605
 2445, 2461, 2462, 2607, 2606
 2446, 2462, 2463, 2608, 2607
 2447, 2463, 2464, 2609, 2608
 2448, 2464, 2465, 2610, 2609
 2449, 2466, 2467, 2612, 2611
 2450, 2467, 2468, 2613, 2612
 2451, 2468, 2469, 2614, 2613
 2452, 2469, 2470, 2615, 2614
 2453, 2470, 2471, 2616, 2615
 2454, 2471, 2472, 2617, 2616
 2455, 2472, 2473, 2618, 2617
 2456, 2473, 2474, 2619, 2618
 2457, 2474, 2475, 2620, 2619
 2458, 2475, 2476, 2621, 2620
 2459, 2476, 2477, 2622, 2621
 2460, 2477, 2478, 2623, 2622
 2461, 2478, 2479, 2624, 2623
 2462, 2479, 2480, 2625, 2624
 2463, 2480, 2481, 2626, 2625
 2464, 2481, 2482, 2627, 2626
 2465, 2482, 2483, 2628, 2627
 2466, 2483, 2484, 2629, 2628
 2467, 2484, 2485, 2630, 2629
 2468, 2485, 2486, 2631, 2630
 2469, 2486, 2487, 2632, 2631
 2470, 2487, 2488, 2633, 2632
 2471, 2488, 2489, 2634, 2633
 2472, 2489, 2490, 2635, 2634
 2473, 2490, 2491, 2636, 2635
 2474, 2491, 2492, 2637, 2636
 2475, 2492, 2493, 2638, 2637
 2476, 2493, 2494, 2639, 2638
 2477, 2494, 2495, 2640, 2639
 2478, 2495, 2496, 2641, 2640
 2479, 2496, 2497, 2642, 2641
 2480, 2497, 2498, 2643, 2642
 2481, 2498, 2499, 2644, 2643
 2482, 2499, 2500, 2645, 2644
 2483, 2500, 2501, 2646, 2645
 2484, 2501, 2502, 2647, 2646
 2485, 2502, 2503, 2648, 2647
 2486, 2503, 2504, 2649, 2648
 2487, 2504, 2505, 2650, 2649
 2488, 2505, 2506, 2651, 2650
 2489, 2506, 2507, 2652, 2651
 2490, 2507, 2508, 2653, 2652
 2491, 2508, 2509, 2654, 2653
 2492, 2509, 2510, 2655, 2654
 2493, 2510, 2511, 2656, 2655
 2494, 2511, 2512, 2657, 2656
 2495, 2512, 2513, 2658, 2657
 2496, 2513, 2514, 2659, 2658
 2497, 2514, 2515, 2660, 2659
 2498, 2515, 2516, 2661, 2660
 2499, 2516, 2517, 2662, 2661
 2500, 2517, 2518, 2663, 2662
 2501, 2518, 2519, 2664, 2663
 2502, 2519, 2520, 2665, 2664
 2503, 2520, 2521, 2666, 2665
 2504, 2521, 2522, 2667, 2666
 2505, 2522, 2523, 2668, 2667
 2506, 2523, 2524, 2669, 2668
 2507, 2524, 2525, 2670, 2669
 2508, 2525, 2526, 2671, 2670
 2509, 2526, 2527, 2672, 2671
 2510, 2527, 2528, 2673, 2672
 2511, 2528, 2529, 2674, 2673
 2512, 2529, 2530, 2675, 2674
 2513, 2530, 2531, 2676, 2675
 2514, 2531, 2532, 2677, 2676
 2515, 2532, 2533, 2678, 2677
 2516, 2533, 2534, 2679, 2678
 2517, 2534, 2535, 2680, 2679
 2518, 2535, 2536, 2681, 2680
 2519, 2536, 2537, 2682, 2681
 2520, 2537, 2538, 2683, 2682
 2521, 2538, 2539, 2684, 2683
 2522, 2539, 2540, 2685, 2684
 2523, 2540, 2541, 2686, 2685
 2524, 2541, 2542, 2687, 2686
 2525, 2542, 2543, 2688, 2687
 2526, 2543, 2544, 2689, 2688
 2527, 2544, 2545, 2690, 2689
 2528, 2545, 2546, 2691, 2690
 2529, 2546, 2547, 2692, 2691
 2530, 2547, 2548, 2693, 2692
 2531, 2548, 2549, 2694, 2693
 2532, 2549, 2550, 2695, 2694
 2533, 2550, 2551, 2696, 2695
 2534, 2551, 2552, 2697, 2696
 2535, 2552, 2553, 2698, 2697
 2536, 2553, 2554, 2699, 2698
 2537, 2554, 2555, 2700, 2699
 2538, 2555, 2556, 2701, 2700
 2539, 2556, 2557, 2702, 2701
 2540, 2557, 2558, 2703, 2702
 2541, 2558, 2559, 2704, 2703
 2542, 2559, 2560, 2705, 2704
 2543, 2560, 2561, 2706, 2705
 2544, 2561, 2562, 2707, 2706
 2545, 2562, 2563, 2708, 2707
 2546, 2563, 2564, 2709, 2708
 2547, 2564, 2565, 2710, 2709
 2548, 2565, 2566, 2711, 2710
 2549, 2566, 2567, 2712, 2711
 2550, 2567, 2568, 2713, 2712
 2551, 2568, 2569, 2714, 2713
 2552, 2569, 2570, 2715, 2714
 2553, 2570, 2571, 2716, 2715
 2554, 2571, 2572, 2717, 2716
 2555, 2572, 2573, 2718, 2717
 2556, 2573, 2574, 2719, 2718
 2557, 2574, 2575, 2720, 2719
 2558, 2575, 2576, 2721, 2720
 2559, 2576, 2577, 2722, 2721
 2560, 2577, 2578, 2723, 2722
 2561, 2578, 2579, 2724, 2723
 2562, 2579, 2580, 2725, 2724
 2563, 2580, 2581, 2726, 2725
 2564, 2581, 2582, 2727, 2726
 2565, 2582, 2583, 2728, 2727
 2566, 2583, 2584, 2729, 2728
 2567, 2584, 2585, 2730, 2729
 2568, 2585, 2586, 2731, 2730
 2569, 2586, 2587, 2732, 2731
 2570, 2587, 2588, 2733, 2732
 2571, 2588, 2589, 2734, 2733
 2572, 2589, 2590, 2735, 2734
 2573, 2590, 2591, 2736, 2735
 2574, 2591, 2592, 2737, 2736
 2575, 2592, 2593, 2738, 2737
 2576, 2593, 2594, 2739, 2738
 2577, 2594, 2595, 2740, 2739
 2578, 2595, 2596, 2741, 2740
 2579, 2596, 2597, 2742, 2741
 2580, 2597, 2598, 2743, 2742
 2581, 2598, 2599, 2744, 2743
 2582, 2599, 2600, 2745, 2744
 2583, 2600, 2601, 2746, 2745
 2584, 2601, 2602, 2747, 2746
 2585, 2602, 2603, 2748, 2747
 2586, 2603, 2604, 2749, 2748
 2587, 2604, 2605, 2750, 2749
 2588, 2605, 2606, 2751, 2750
 2589, 2606, 2607, 2752, 2751
 2590, 2607, 2608, 2753, 2752
 2591, 2608, 2609, 2754, 2753
 2592, 2609, 2610, 2755, 2754
 2593, 2611, 2612, 2757, 2756
 2594, 2612, 2613, 2758, 2757
 2595, 2613, 2614, 2759, 2758
 2596, 2614, 2615, 2760, 2759
 2597, 2615, 2616, 2761, 2760
 2598, 2616, 2617, 2762, 2761
 2599, 2617, 2618, 2763, 2762
 2600, 2618, 2619, 2764, 2763
 2601, 2619, 2620, 2765, 2764
 2602, 2620, 2621, 2766, 2765
 2603, 2621, 2622, 2767, 2766
 2604, 2622, 2623, 2768, 2767
 2605, 2623, 2624, 2769, 2768
 2606, 2624, 2625, 2770, 2769
 2607, 2625, 2626, 2771, 2770
 2608, 2626, 2627, 2772, 2771
 2609, 2627, 2628, 2773, 2772
 2610, 2628, 2629, 2774, 2773
 2611, 2629, 2630, 2775, 2774
 2612, 2630, 2631, 2776, 2775
 2613, 2631, 2632, 2777, 2776
 2614, 2632, 2633, 2778, 2777
 2615, 2633, 2634, 2779, 2778
 2616, 2634, 2635, 2780, 2779
 2617, 2635, 2636, 2781, 2780
 2618, 2636, 2637, 2782, 2781
 2619, 2637, 2638, 2783, 2782
 2620, 2638, 2639, 2784, 2783
 2621, 2639, 2640, 2785, 2784
 2622, 2640, 2641, 2786, 2785
 2623, 2641, 2642, 2787, 2786
 2624, 2642, 2643, 2788, 2787
 2625, 2643, 2644, 2789, 2788
 2626, 2644, 2645, 2790, 2789
 2627, 2645, 2646, 2791, 2790
 2628, 2646, 2647, 2792, 2791
 2629, 2647, 2648, 2793, 2792
 2630, 2648, 2649, 2794, 2793
 2631, 2649, 2650, 2795, 2794
 2632, 2650, 2651, 2796, 2795
 2633, 2651, 2652, 2797, 2796
 2634, 2652, 2653, 2798, 2797
 2635, 2653, 2654, 2799, 2798
 2636, 2654, 2655, 2800, 2799
 2637, 2655, 2656, 2801, 2800
 2638, 2656, 2657, 2802, 2801
 2639, 2657, 2658, 2803, 2802
 2640, 2658, 2659, 2804, 2803
 2641, 2659, 2660, 2805, 2804
 2642, 2660, 2661, 2806, 2805
 2643, 2661, 2662, 2807, 2806
 2644, 2662, 2663, 2808, 2807
 2645, 2663, 2664, 2809, 2808
 2646, 2664, 2665, 2810, 2809
 2647, 2665, 2666, 2811, 2810
 2648, 2666, 2667, 2812, 2811
 2649, 2667, 2668, 2813, 2812
 2650, 2668, 2669, 2814, 2813
 2651, 2669, 2670, 2815, 2814
 2652, 2670, 2671, 2816, 2815
 2653, 2671, 2672, 2817, 2816
 2654, 2672, 2673, 2818, 2817
 2655, 2673, 2674, 2819, 2818
 2656, 2674, 2675, 2820, 2819
 2657, 2675, 2676, 2821, 2820
 2658, 2676, 2677, 2822, 2821
 2659, 2677, 2678, 2823, 2822
 2660, 2678, 2679, 2824, 2823
 2661, 2679, 2680, 2825, 2824
 2662, 2680, 2681, 2826, 2825
 2663, 2681, 2682, 2827, 2826
 2664, 2682, 2683, 2828, 2827
 2665, 2683, 2684, 2829, 2828
 2666, 2684, 2685, 2830, 2829
 2667, 2685, 2686, 2831, 2830
 2668, 2686, 2687, 2832, 2831
 2669, 2687, 2688, 2833, 2832
 2670, 2688, 2689, 2834, 2833
 2671, 2689, 2690, 2835, 2834
 2672, 2690, 2691, 2836, 2835
 2673, 2691, 2692, 2837, 2836
 2674, 2692, 2693, 2838, 2837
 2675, 2693, 2694, 2839, 2838
 2676, 2694, 2695, 2840, 2839
 2677, 2695, 2696, 2841, 2840
 2678, 2696, 2697, 2842, 2841
 2679, 2697, 2698, 2843, 2842
 2680, 2698, 2699, 2844, 2843
 2681, 2699, 2700, 2845, 2844
 2682, 2700, 2701, 2846, 2845
 2683, 2701, 2702, 2847, 2846
 2684, 2702, 2703, 2848, 2847
 2685, 2703, 2704, 2849, 2848
 2686, 2704, 2705, 2850, 2849
 2687, 2705, 2706, 2851, 2850
 2688, 2706, 2707, 2852, 2851
 2689, 2707, 2708, 2853, 2852
 2690, 2708, 2709, 2854, 2853
 2691, 2709, 2710, 2855, 2854
 2692, 2710, 2711, 2856, 2855
 2693, 2711, 2712, 2857, 2856
 2694, 2712, 2713, 2858, 2857
 2695, 2713, 2714, 2859, 2858
 2696, 2714, 2715, 2860, 2859
 2697, 2715, 2716, 2861, 2860
 2698, 2716, 2717, 2862, 2861
 2699, 2717, 2718, 2863, 2862
 2700, 2718, 2719, 2864, 2863
 2701, 2719, 2720, 2865, 2864
 2702, 2720, 2721, 2866, 2865
 2703, 2721, 2722, 2867, 2866
 2704, 2722, 2723, 2868, 2867
 2705, 2723, 2724, 2869, 2868
 2706, 2724, 2725, 2870, 2869
 2707, 2725, 2726, 2871, 2870
 2708, 2726, 2727, 2872, 2871
 2709, 2727, 2728, 2873, 2872
 2710, 2728, 2729, 2874, 2873
 2711, 2729, 2730, 2875, 2874
 2712, 2730, 2731, 2876, 2875
 2713, 2731, 2732, 2877, 2876
 2714, 2732, 2733, 2878, 2877
 2715, 2733, 2734, 2879, 2878
 2716, 2734, 2735, 2880, 2879
 2717, 2735, 2736, 2881, 2880
 2718, 2736, 2737, 2882, 2881
 2719, 2737, 2738, 2883, 2882
 2720, 2738, 2739, 2884, 2883
 2721, 2739, 2740, 2885, 2884
 2722, 2740, 2741, 2886, 2885
 2723, 2741, 2742, 2887, 2886
 2724, 2742, 2743, 2888, 2887
 2725, 2743, 2744, 2889, 2888
 2726, 2744, 2745, 2890, 2889
 2727, 2745, 2746, 2891, 2890
 2728, 2746, 2747, 2892, 2891
 2729, 2747, 2748, 2893, 2892
 2730, 2748, 2749, 2894, 2893
 2731, 2749, 2750, 2895, 2894
 2732, 2750, 2751, 2896, 2895
 2733, 2751, 2752, 2897, 2896
 2734, 2752, 2753, 2898, 2897
 2735, 2753, 2754, 2899, 2898
 2736, 2754, 2755, 2900, 2899
 2737, 2756, 2757, 2902, 2901
 2738, 2757, 2758, 2903, 2902
 2739, 2758, 2759, 2904, 2903
 2740, 2759, 2760, 2905, 2904
 2741, 2760, 2761, 2906, 2905
 2742, 2761, 2762, 2907, 2906
 2743, 2762, 2763, 2908, 2907
 2744, 2763, 2764, 2909, 2908
 2745, 2764, 2765, 2910, 2909
 2746, 2765, 2766, 2911, 2910
 2747, 2766, 2767, 2912, 2911
 2748, 2767, 2768, 2913, 2912
 2749, 2768, 2769, 2914, 2913
 2750, 2769, 2770, 2915, 2914
 2751, 2770, 2771, 2916, 2915
 2752, 2771, 2772, 2917, 2916
 2753, 2772, 2773, 2918, 2917
 2754, 2773, 2774, 2919, 2918
 2755, 2774, 2775, 2920, 2919
 2756, 2775, 2776, 2921, 2920
 2757, 2776, 2777, 2922, 2921
 2758, 2777, 2778, 2923, 2922
 2759, 2778, 2779, 2924, 2923
 2760, 2779, 2780, 2925, 2924
 2761, 2780, 2781, 2926, 2925
 2762, 2781, 2782, 2927, 2926
 2763, 2782, 2783, 2928, 2927
 2764, 2783, 2784, 2929, 2928
 2765, 2784, 2785, 2930, 2929
 2766, 2785, 2786, 2931, 2930
 2767, 2786, 2787, 2932, 2931
 2768, 2787, 2788, 2933, 2932
 2769, 2788, 2789, 2934, 2933
 2770, 2789, 2790, 2935, 2934
 2771, 2790, 2791, 2936, 2935
 2772, 2791, 2792, 2937, 2936
 2773, 2792, 2793, 2938, 2937
 2774, 2793, 2794, 2939, 2938
 2775, 2794, 2795, 2940, 2939
 2776, 2795, 2796, 2941, 2940
 2777, 2796, 2797, 2942, 2941
 2778, 2797, 2798, 2943, 2942
 2779, 2798, 2799, 2944, 2943
 2780, 2799, 2800, 2945, 2944
 2781, 2800, 2801, 2946, 2945
 2782, 2801, 2802, 2947, 2946
 2783, 2802, 2803, 2948, 2947
 2784, 2803, 2804, 2949, 2948
 2785, 2804, 2805, 2950, 2949
 2786, 2805, 2806, 2951, 2950
 2787, 2806, 2807, 2952, 2951
 2788, 2807, 2808, 2953, 2952
 2789, 2808, 2809, 2954, 2953
 2790, 2809, 2810, 2955, 2954
 2791, 2810, 2811, 2956, 2955
 2792, 2811, 2812, 2957, 2956
 2793, 2812, 2813, 2958, 2957
 2794, 2813, 2814, 2959, 2958
 2795, 2814, 2815, 2960, 2959
 2796, 2815, 2816, 2961, 2960
 2797, 2816, 2817, 2962, 2961
 2798, 2817, 2818, 2963, 2962
 2799, 2818, 2819, 2964, 2963
 2800, 2819, 2820, 2965, 2964
 2801, 2820, 2821, 2966, 2965
 2802, 2821, 2822, 2967, 2966
 2803, 2822, 2823, 2968, 2967
 2804, 2823, 2824, 2969, 2968
 2805, 2824, 2825, 2970, 2969
 2806, 2825, 2826, 2971, 2970
 2807, 2826, 2827, 2972, 2971
 2808, 2827, 2828, 2973, 2972
 2809, 2828, 2829, 2974, 2973
 2810, 2829, 2830, 2975, 2974
 2811, 2830, 2831, 2976, 2975
 2812, 2831, 2832, 2977, 2976
 2813, 2832, 2833, 2978, 2977
 2814, 2833, 2834, 2979, 2978
 2815, 2834, 2835, 2980, 2979
 2816, 2835, 2836, 2981, 2980
 2817, 2836, 2837, 2982, 2981
 2818, 2837, 2838, 2983, 2982
 2819, 2838, 2839, 2984, 2983
 2820, 2839, 2840, 2985, 2984
 2821, 2840, 2841, 2986, 2985
 2822, 2841, 2842, 2987, 2986
 2823, 2842, 2843, 2988, 2987
 2824, 2843, 2844, 2989, 2988
 2825, 2844, 2845, 2990, 2989
 2826, 2845, 2846, 2991, 2990
 2827, 2846, 2847, 2992, 2991
 2828, 2847, 2848, 2993, 2992
 2829, 2848, 2849, 2994, 2993
 2830, 2849, 2850, 2995, 2994
 2831, 2850, 2851, 2996, 2995
 2832, 2851, 2852, 2997, 2996
 2833, 2852, 2853, 2998, 2997
 2834, 2853, 2854, 2999, 2998
 2835, 2854, 2855, 3000, 2999
 2836, 2855, 2856, 3001, 3000
 2837, 2856, 2857, 3002, 3001
 2838, 2857, 2858, 3003, 3002
 2839, 2858, 2859, 3004, 3003
 2840, 2859, 2860, 3005, 3004
 2841, 2860, 2861, 3006, 3005
 2842, 2861, 2862, 3007, 3006
 2843, 2862, 2863, 3008, 3007
 2844, 2863, 2864, 3009, 3008
 2845, 2864, 2865, 3010, 3009
 2846, 2865, 2866, 3011, 3010
 2847, 2866, 2867, 3012, 3011
 2848, 2867, 2868, 3013, 3012
 2849, 2868, 2869, 3014, 3013
 2850, 2869, 2870, 3015, 3014
 2851, 2870, 2871, 3016, 3015
 2852, 2871, 2872, 3017, 3016
 2853, 2872, 2873, 3018, 3017
 2854, 2873, 2874, 3019, 3018
 2855, 2874, 2875, 3020, 3019
 2856, 2875, 2876, 3021, 3020
 2857, 2876, 2877, 3022, 3021
 2858, 2877, 2878, 3023, 3022
 2859, 2878, 2879, 3024, 3023
 2860, 2879, 2880, 3025, 3024
 2861, 2880, 2881, 3026, 3025
 2862, 2881, 2882, 3027, 3026
 2863, 2882, 2883, 3028, 3027
 2864, 2883, 2884, 3029, 3028
 2865, 2884, 2885, 3030, 3029
 2866, 2885, 2886, 3031, 3030
 2867, 2886, 2887, 3032, 3031
 2868, 2887, 2888, 3033, 3032
 2869, 2888, 2889, 3034, 3033
 2870, 2889, 2890, 3035, 3034
 2871, 2890, 2891, 3036, 3035
 2872, 2891, 2892, 3037, 3036
 2873, 2892, 2893, 3038, 3037
 2874, 2893, 2894, 3039, 3038
 2875, 2894, 2895, 3040, 3039
 2876, 2895, 2896, 3041, 3040
 2877, 2896, 2897, 3042, 3041
 2878, 2897, 2898, 3043, 3042
 2879, 2898, 2899, 3044, 3043
 2880, 2899, 2900, 3045, 3044
 2881, 2901, 2902, 3047, 3046
 2882, 2902, 2903, 3048, 3047
 2883, 2903, 2904, 3049, 3048
 2884, 2904, 2905, 3050, 3049
 2885, 2905, 2906, 3051, 3050
 2886, 2906, 2907, 3052, 3051
 2887, 2907, 2908, 3053, 3052
 2888, 2908, 2909, 3054, 3053
 2889, 2909, 2910, 3055, 3054
 2890, 2910, 2911, 3056, 3055
 2891, 2911, 2912, 3057, 3056
 2892, 2912, 2913, 3058, 3057
 2893, 2913, 2914, 3059, 3058
 2894, 2914, 2915, 3060, 3059
 2895, 2915, 2916, 3061, 3060
 2896, 2916, 2917, 3062, 3061
 2897, 2917, 2918, 3063, 3062
 2898, 2918, 2919, 3064, 3063
 2899, 2919, 2920, 3065, 3064
 2900, 2920, 2921, 3066, 3065
 2901, 2921, 2922, 3067, 3066
 2902, 2922, 2923, 3068, 3067
 2903, 2923, 2924, 3069, 3068
 2904, 2924, 2925, 3070, 3069
 2905, 2925, 2926, 3071, 3070
 2906, 2926, 2927, 3072, 3071
 2907, 2927, 2928, 3073, 3072
 2908, 2928, 2929, 3074, 3073
 2909, 2929, 2930, 3075, 3074
 2910, 2930, 2931, 3076, 3075
 2911, 2931, 2932, 3077, 3076
 2912, 2932, 2933, 3078, 3077
 2913, 2933, 2934, 3079, 3078
 2914, 2934, 2935, 3080, 3079
 2915, 2935, 2936, 3081, 3080
 2916, 2936, 2937, 3082, 3081
 2917, 2937, 2938, 3083, 3082
 2918, 2938, 2939, 3084, 3083
 2919, 2939, 2940, 3085, 3084
 2920, 2940, 2941, 3086, 3085
 2921, 2941, 2942, 3087, 3086
 2922, 2942, 2943, 3088, 3087
 2923, 2943, 2944, 3089, 3088
 2924, 2944, 2945, 3090, 3089
 2925, 2945, 2946, 3091, 3090
 2926, 2946, 2947, 3092, 3091
 2927, 2947, 2948, 3093, 3092
 2928, 2948, 2949, 3094, 3093
 2929, 2949, 2950, 3095, 3094
 2930, 2950, 2951, 3096, 3095
 2931, 2951, 2952, 3097, 3096
 2932, 2952, 2953, 3098, 3097
 2933, 2953, 2954, 3099, 3098
 2934, 2954, 2955, 3100, 3099
 2935, 2955, 2956, 3101, 3100
 2936, 2956, 2957, 3102, 3101
 2937, 2957, 2958, 3103, 3102
 2938, 2958, 2959, 3104, 3103
 2939, 2959, 2960, 3105, 3104
 2940, 2960, 2961, 3106, 3105
 2941, 2961, 2962, 3107, 3106
 2942, 2962, 2963, 3108, 3107
 2943, 2963, 2964, 3109, 3108
 2944, 2964, 2965, 3110, 3109
 2945, 2965, 2966, 3111, 3110
 2946, 2966, 2967, 3112, 3111
 2947, 2967, 2968, 3113, 3112
 2948, 2968, 2969, 3114, 3113
 2949, 2969, 2970, 3115, 3114
 2950, 2970, 2971, 3116, 3115
 2951, 2971, 2972, 3117, 3116
 2952, 2972, 2973, 3118, 3117
 2953, 2973, 2974, 3119, 3118
 2954, 2974, 2975, 3120, 3119
 2955, 2975, 2976, 3121, 3120
 2956, 2976, 2977, 3122, 3121
 2957, 2977, 2978, 3123, 3122
 2958, 2978, 2979, 3124, 3123
 2959, 2979, 2980, 3125, 3124
 2960, 2980, 2981, 3126, 3125
 2961, 2981, 2982, 3127, 3126
 2962, 2982, 2983, 3128, 3127
 2963, 2983, 2984, 3129, 3128
 2964, 2984, 2985, 3130, 3129
 2965, 2985, 2986, 3131, 3130
 2966, 2986, 2987, 3132, 3131
 2967, 2987, 2988, 3133, 3132
 2968, 2988, 2989, 3134, 3133
 2969, 2989, 2990, 3135, 3134
 2970, 2990, 2991, 3136, 3135
 2971, 2991, 2992, 3137, 3136
 2972, 2992, 2993, 3138, 3137
 2973, 2993, 2994, 3139, 3138
 2974, 2994, 2995, 3140, 3139
 2975, 2995, 2996, 3141, 3140
 2976, 2996, 2997, 3142, 3141
 2977, 2997, 2998, 3143, 3142
 2978, 2998, 2999, 3144, 3143
 2979, 2999, 3000, 3145, 3144
 2980, 3000, 3001, 3146, 3145
 2981, 3001, 3002, 3147, 3146
 2982, 3002, 3003, 3148, 3147
 2983, 3003, 3004, 3149, 3148
 2984, 3004, 3005, 3150, 3149
 2985, 3005, 3006, 3151, 3150
 2986, 3006, 3007, 3152, 3151
 2987, 3007, 3008, 3153, 3152
 2988, 3008, 3009, 3154, 3153
 2989, 3009, 3010, 3155, 3154
 2990, 3010, 3011, 3156, 3155
 2991, 3011, 3012, 3157, 3156
 2992, 3012, 3013, 3158, 3157
 2993, 3013, 3014, 3159, 3158
 2994, 3014, 3015, 3160, 3159
 2995, 3015, 3016, 3161, 3160
 2996, 3016, 3017, 3162, 3161
 2997, 3017, 3018, 3163, 3162
 2998, 3018, 3019, 3164, 3163
 2999, 3019, 3020, 3165, 3164
 3000, 3020, 3021, 3166, 3165
 3001, 3021, 3022, 3167, 3166
 3002, 3022, 3023, 3168, 3167
 3003, 3023, 3024, 3169, 3168
 3004, 3024, 3025, 3170, 3169
 3005, 3025, 3026, 3171, 3170
 3006, 3026, 3027, 3172, 3171
 3007, 3027, 3028, 3173, 3172
 3008, 3028, 3029, 3174, 3173
 3009, 3029, 3030, 3175, 3174
 3010, 3030, 3031, 3176, 3175
 3011, 3031, 3032, 3177, 3176
 3012, 3032, 3033, 3178, 3177
 3013, 3033, 3034, 3179, 3178
 3014, 3034, 3035, 3180, 3179
 3015, 3035, 3036, 3181, 3180
 3016, 3036, 3037, 3182, 3181
 3017, 3037, 3038, 3183, 3182
 3018, 3038, 3039, 3184, 3183
 3019, 3039, 3040, 3185, 3184
 3020, 3040, 3041, 3186, 3185
 3021, 3041, 3042, 3187, 3186
 3022, 3042, 3043, 3188, 3187
 3023, 3043, 3044, 3189, 3188
 3024, 3044, 3045, 3190, 3189
 3025, 3046, 3047, 3192, 3191
 3026, 3047, 3048, 3193, 3192
 3027, 3048, 3049, 3194, 3193
 3028, 3049, 3050, 3195, 3194
 3029, 3050, 3051, 3196, 3195
 3030, 3051, 3052, 3197, 3196
 3031, 3052, 3053, 3198, 3197
 3032, 3053, 3054, 3199, 3198
 3033, 3054, 3055, 3200, 3199
 3034, 3055, 3056, 3201, 3200
 3035, 3056, 3057, 3202, 3201
 3036, 3057, 3058, 3203, 3202
 3037, 3058, 3059, 3204, 3203
 3038, 3059, 3060, 3205, 3204
 3039, 3060, 3061, 3206, 3205
 3040, 3061, 3062, 3207, 3206
 3041, 3062, 3063, 3208, 3207
 3042, 3063, 3064, 3209, 3208
 3043, 3064, 3065, 3210, 3209
 3044, 3065, 3066, 3211, 3210
 3045, 3066, 3067, 3212, 3211
 3046, 3067, 3068, 3213, 3212
 3047, 3068, 3069, 3214, 3213
 3048, 3069, 3070, 3215, 3214
 3049, 3070, 3071, 3216, 3215
 3050, 3071, 3072, 3217, 3216
 3051, 3072, 3073, 3218, 3217
 3052, 3073, 3074, 3219, 3218
 3053, 3074, 3075, 3220, 3219
 3054, 3075, 3076, 3221, 3220
 3055, 3076, 3077, 3222, 3221
 3056, 3077, 3078, 3223, 3222
 3057, 3078, 3079, 3224, 3223
 3058, 3079, 3080, 3225, 3224
 3059, 3080, 3081, 3226, 3225
 3060, 3081, 3082, 3227, 3226
 3061, 3082, 3083, 3228, 3227
 3062, 3083, 3084, 3229, 3228
 3063, 3084, 3085, 3230, 3229
 3064, 3085, 3086, 3231, 3230
 3065, 3086, 3087, 3232, 3231
 3066, 3087, 3088, 3233, 3232
 3067, 3088, 3089, 3234, 3233
 3068, 3089, 3090, 3235, 3234
 3069, 3090, 3091, 3236, 3235
 3070, 3091, 3092, 3237, 3236
 3071, 3092, 3093, 3238, 3237
 3072, 3093, 3094, 3239, 3238
 3073, 3094, 3095, 3240, 3239
 3074, 3095, 3096, 3241, 3240
 3075, 3096, 3097, 3242, 3241
 3076, 3097, 3098, 3243, 3242
 3077, 3098, 3099, 3244, 3243
 3078, 3099, 3100, 3245, 3244
 3079, 3100, 3101, 3246, 3245
 3080, 3101, 3102, 3247, 3246
 3081, 3102, 3103, 3248, 3247
 3082, 3103, 3104, 3249, 3248
 3083, 3104, 3105, 3250, 3249
 3084, 3105, 3106, 3251, 3250
 3085, 3106, 3107, 3252, 3251
 3086, 3107, 3108, 3253, 3252
 3087, 3108, 3109, 3254, 3253
 3088, 3109, 3110, 3255, 3254
 3089, 3110, 3111, 3256, 3255
 3090, 3111, 3112, 3257, 3256
 3091, 3112, 3113, 3258, 3257
 3092, 3113, 3114, 3259, 3258
 3093, 3114, 3115, 3260, 3259
 3094, 3115, 3116, 3261, 3260
 3095, 3116, 3117, 3262, 3261
 3096, 3117, 3118, 3263, 3262
 3097, 3118, 3119, 3264, 3263
 3098, 3119, 3120, 3265, 3264
 3099, 3120, 3121, 3266, 3265
 3100, 3121, 3122, 3267, 3266
 3101, 3122, 3123, 3268, 3267
 3102, 3123, 3124, 3269, 3268
 3103, 3124, 3125, 3270, 3269
 3104, 3125, 3126, 3271, 3270
 3105, 3126, 3127, 3272, 3271
 3106, 3127, 3128, 3273, 3272
 3107, 3128, 3129, 3274, 3273
 3108, 3129, 3130, 3275, 3274
 3109, 3130, 3131, 3276, 3275
 3110, 3131, 3132, 3277, 3276
 3111, 3132, 3133, 3278, 3277
 3112, 3133, 3134, 3279, 3278
 3113, 3134, 3135, 3280, 3279
 3114, 3135, 3136, 3281, 3280
 3115, 3136, 3137, 3282, 3281
 3116, 3137, 3138, 3283, 3282
 3117, 3138, 3139, 3284, 3283
 3118, 3139, 3140, 3285, 3284
 3119, 3140, 3141, 3286, 3285
 3120, 3141, 3142, 3287, 3286
 3121, 3142, 3143, 3288, 3287
 3122, 3143, 3144, 3289, 3288
 3123, 3144, 3145, 3290, 3289
 3124, 3145, 3146, 3291, 3290
 3125, 3146, 3147, 3292, 3291
 3126, 3147, 3148, 3293, 3292
 3127, 3148, 3149, 3294, 3293
 3128, 3149, 3150, 3295, 3294
 3129, 3150, 3151, 3296, 3295
 3130, 3151, 3152, 3297, 3296
 3131, 3152, 3153, 3298, 3297
 3132, 3153, 3154, 3299, 3298
 3133, 3154, 3155, 3300, 3299
 3134, 3155, 3156, 3301, 3300
 3135, 3156, 3157, 3302, 3301
 3136, 3157, 3158, 3303, 3302
 3137, 3158, 3159, 3304, 3303
 3138, 3159, 3160, 3305, 3304
 3139, 3160, 3161, 3306, 3305
 3140, 3161, 3162, 3307, 3306
 3141, 3162, 3163, 3308, 3307
 3142, 3163, 3164, 3309, 3308
 3143, 3164, 3165, 3310, 3309
 3144, 3165, 3166, 3311, 3310
 3145, 3166, 3167, 3312, 3311
 3146, 3167, 3168, 3313, 3312
 3147, 3168, 3169, 3314, 3313
 3148, 3169, 3170, 3315, 3314
 3149, 3170, 3171, 3316, 3315
 3150, 3171, 3172, 3317, 3316
 3151, 3172, 3173, 3318, 3317
 3152, 3173, 3174, 3319, 3318
 3153, 3174, 3175, 3320, 3319
 3154, 3175, 3176, 3321, 3320
 3155, 3176, 3177, 3322, 3321
 3156, 3177, 3178, 3323, 3322
 3157, 3178, 3179, 3324, 3323
 3158, 3179, 3180, 3325, 3324
 3159, 3180, 3181, 3326, 3325
 3160, 3181, 3182, 3327, 3326
 3161, 3182, 3183, 3328, 3327
 3162, 3183, 3184, 3329, 3328
 3163, 3184, 3185, 3330, 3329
 3164, 3185, 3186, 3331, 3330
 3165, 3186, 3187, 3332, 3331
 3166, 3187, 3188, 3333, 3332
 3167, 3188, 3189, 3334, 3333
 3168, 3189, 3190, 3335, 3334
 3169, 3191, 3192, 3337, 3336
 3170, 3192, 3193, 3338, 3337
 3171, 3193, 3194, 3339, 3338
 3172, 3194, 3195, 3340, 3339
 3173, 3195, 3196, 3341, 3340
 3174, 3196, 3197, 3342, 3341
 3175, 3197, 3198, 3343, 3342
 3176, 3198, 3199, 3344, 3343
 3177, 3199, 3200, 3345, 3344
 3178, 3200, 3201, 3346, 3345
 3179, 3201, 3202, 3347, 3346
 3180, 3202, 3203, 3348, 3347
 3181, 3203, 3204, 3349, 3348
 3182, 3204, 3205, 3350, 3349
 3183, 3205, 3206, 3351, 3350
 3184, 3206, 3207, 3352, 3351
 3185, 3207, 3208, 3353, 3352
 3186, 3208, 3209, 3354, 3353
 3187, 3209, 3210, 3355, 3354
 3188, 3210, 3211, 3356, 3355
 3189, 3211, 3212, 3357, 3356
 3190, 3212, 3213, 3358, 3357
 3191, 3213, 3214, 3359, 3358
 3192, 3214, 3215, 3360, 3359
 3193, 3215, 3216, 3361, 3360
 3194, 3216, 3217, 3362, 3361
 3195, 3217, 3218, 3363, 3362
 3196, 3218, 3219, 3364, 3363
 3197, 3219, 3220, 3365, 3364
 3198, 3220, 3221, 3366, 3365
 3199, 3221, 3222, 3367, 3366
 3200, 3222, 3223, 3368, 3367
 3201, 3223, 3224, 3369, 3368
 3202, 3224, 3225, 3370, 3369
 3203, 3225, 3226, 3371, 3370
 3204, 3226, 3227, 3372, 3371
 3205, 3227, 3228, 3373, 3372
 3206, 3228, 3229, 3374, 3373
 3207, 3229, 3230, 3375, 3374
 3208, 3230, 3231, 3376, 3375
 3209, 3231, 3232, 3377, 3376
 3210, 3232, 3233, 3378, 3377
 3211, 3233, 3234, 3379, 3378
 3212, 3234, 3235, 3380, 3379
 3213, 3235, 3236, 3381, 3380
 3214, 3236, 3237, 3382, 3381
 3215, 3237, 3238, 3383, 3382
 3216, 3238, 3239, 3384, 3383
 3217, 3239, 3240, 3385, 3384
 3218, 3240, 3241, 3386, 3385
 3219, 3241, 3242, 3387, 3386
 3220, 3242, 3243, 3388, 3387
 3221, 3243, 3244, 3389, 3388
 3222, 3244, 3245, 3390, 3389
 3223, 3245, 3246, 3391, 3390
 3224, 3246, 3247, 3392, 3391
 3225, 3247, 3248, 3393, 3392
 3226, 3248, 3249, 3394, 3393
 3227, 3249, 3250, 3395, 3394
 3228, 3250, 3251, 3396, 3395
 3229, 3251, 3252, 3397, 3396
 3230, 3252, 3253, 3398, 3397
 3231, 3253, 3254, 3399, 3398
 3232, 3254, 3255, 3400, 3399
 3233, 3255, 3256, 3401, 3400
 3234, 3256, 3257, 3402, 3401
 3235, 3257, 3258, 3403, 3402
 3236, 3258, 3259, 3404, 3403
 3237, 3259, 3260, 3405, 3404
 3238, 3260, 3261, 3406, 3405
 3239, 3261, 3262, 3407, 3406
 3240, 3262, 3263, 3408, 3407
 3241, 3263, 3264, 3409, 3408
 3242, 3264, 3265, 3410, 3409
 3243, 3265, 3266, 3411, 3410
 3244, 3266, 3267, 3412, 3411
 3245, 3267, 3268, 3413, 3412
 3246, 3268, 3269, 3414, 3413
 3247, 3269, 3270, 3415, 3414
 3248, 3270, 3271, 3416, 3415
 3249, 3271, 3272, 3417, 3416
 3250, 3272, 3273, 3418, 3417
 3251, 3273, 3274, 3419, 3418
 3252, 3274, 3275, 3420, 3419
 3253, 3275, 3276, 3421, 3420
 3254, 3276, 3277, 3422, 3421
 3255, 3277, 3278, 3423, 3422
 3256, 3278, 3279, 3424, 3423
 3257, 3279, 3280, 3425, 3424
 3258, 3280, 3281, 3426, 3425
 3259, 3281, 3282, 3427, 3426
 3260, 3282, 3283, 3428, 3427
 3261, 3283, 3284, 3429, 3428
 3262, 3284, 3285, 3430, 3429
 3263, 3285, 3286, 3431, 3430
 3264, 3286, 3287, 3432, 3431
 3265, 3287, 3288, 3433, 3432
 3266, 3288, 3289, 3434, 3433
 3267, 3289, 3290, 3435, 3434
 3268, 3290, 3291, 3436, 3435
 3269, 3291, 3292, 3437, 3436
 3270, 3292, 3293, 3438, 3437
 3271, 3293, 3294, 3439, 3438
 3272, 3294, 3295, 3440, 3439
 3273, 3295, 3296, 3441, 3440
 3274, 3296, 3297, 3442, 3441
 3275, 3297, 3298, 3443, 3442
 3276, 3298, 3299, 3444, 3443
 3277, 3299, 3300, 3445, 3444
 3278, 3300, 3301, 3446, 3445
 3279, 3301, 3302, 3447, 3446
 3280, 3302, 3303, 3448, 3447
 3281, 3303, 3304, 3449, 3448
 3282, 3304, 3305, 3450, 3449
 3283, 3305, 3306, 3451, 3450
 3284, 3306, 3307, 3452, 3451
 3285, 3307, 3308, 3453, 3452
 3286, 3308, 3309, 3454, 3453
 3287, 3309, 3310, 3455, 3454
 3288, 3310, 3311, 3456, 3455
 3289, 3311, 3312, 3457, 3456
 3290, 3312, 3313, 3458, 3457
 3291, 3313, 3314, 3459, 3458
 3292, 3314, 3315, 3460, 3459
 3293, 3315, 3316, 3461, 3460
 3294, 3316, 3317, 3462, 3461
 3295, 3317, 3318, 3463, 3462
 3296, 3318, 3319, 3464, 3463
 3297, 3319, 3320, 3465, 3464
 3298, 3320, 3321, 3466, 3465
 3299, 3321, 3322, 3467, 3466
 3300, 3322, 3323, 3468, 3467
 3301, 3323, 3324, 3469, 3468
 3302, 3324, 3325, 3470, 3469
 3303, 3325, 3326, 3471, 3470
 3304, 3326, 3327, 3472, 3471
 3305, 3327, 3328, 3473, 3472
 3306, 3328, 3329, 3474, 3473
 3307, 3329, 3330, 3475, 3474
 3308, 3330, 3331, 3476, 3475
 3309, 3331, 3332, 3477, 3476
 3310, 3332, 3333, 3478, 3477
 3311, 3333, 3334, 3479, 3478
 3312, 3334, 3335, 3480, 3479
 3313, 3336, 3337, 3482, 3481
 3314, 3337, 3338, 3483, 3482
 3315, 3338, 3339, 3484, 3483
 3316, 3339, 3340, 3485, 3484
 3317, 3340, 3341, 3486, 3485
 3318, 3341, 3342, 3487, 3486
 3319, 3342, 3343, 3488, 3487
 3320, 3343, 3344, 3489, 3488
 3321, 3344, 3345, 3490, 3489
 3322, 3345, 3346, 3491, 3490
 3323, 3346, 3347, 3492, 3491
 3324, 3347, 3348, 3493, 3492
 3325, 3348, 3349, 3494, 3493
 3326, 3349, 3350, 3495, 3494
 3327, 3350, 3351, 3496, 3495
 3328, 3351, 3352, 3497, 3496
 3329, 3352, 3353, 3498, 3497
 3330, 3353, 3354, 3499, 3498
 3331, 3354, 3355, 3500, 3499
 3332, 3355, 3356, 3501, 3500
 3333, 3356, 3357, 3502, 3501
 3334, 3357, 3358, 3503, 3502
 3335, 3358, 3359, 3504, 3503
 3336, 3359, 3360, 3505, 3504
 3337, 3360, 3361, 3506, 3505
 3338, 3361, 3362, 3507, 3506
 3339, 3362, 3363, 3508, 3507
 3340, 3363, 3364, 3509, 3508
 3341, 3364, 3365, 3510, 3509
 3342, 3365, 3366, 3511, 3510
 3343, 3366, 3367, 3512, 3511
 3344, 3367, 3368, 3513, 3512
 3345, 3368, 3369, 3514, 3513
 3346, 3369, 3370, 3515, 3514
 3347, 3370, 3371, 3516, 3515
 3348, 3371, 3372, 3517, 3516
 3349, 3372, 3373, 3518, 3517
 3350, 3373, 3374, 3519, 3518
 3351, 3374, 3375, 3520, 3519
 3352, 3375, 3376, 3521, 3520
 3353, 3376, 3377, 3522, 3521
 3354, 3377, 3378, 3523, 3522
 3355, 3378, 3379, 3524, 3523
 3356, 3379, 3380, 3525, 3524
 3357, 3380, 3381, 3526, 3525
 3358, 3381, 3382, 3527, 3526
 3359, 3382, 3383, 3528, 3527
 3360, 3383, 3384, 3529, 3528
 3361, 3384, 3385, 3530, 3529
 3362, 3385, 3386, 3531, 3530
 3363, 3386, 3387, 3532, 3531
 3364, 3387, 3388, 3533, 3532
 3365, 3388, 3389, 3534, 3533
 3366, 3389, 3390, 3535, 3534
 3367, 3390, 3391, 3536, 3535
 3368, 3391, 3392, 3537, 3536
 3369, 3392, 3393, 3538, 3537
 3370, 3393, 3394, 3539, 3538
 3371, 3394, 3395, 3540, 3539
 3372, 3395, 3396, 3541, 3540
 3373, 3396, 3397, 3542, 3541
 3374, 3397, 3398, 3543, 3542
 3375, 3398, 3399, 3544, 3543
 3376, 3399, 3400, 3545, 3544
 3377, 3400, 3401, 3546, 3545
 3378, 3401, 3402, 3547, 3546
 3379, 3402, 3403, 3548, 3547
 3380, 3403, 3404, 3549, 3548
 3381, 3404, 3405, 3550, 3549
 3382, 3405, 3406, 3551, 3550
 3383, 3406, 3407, 3552, 3551
 3384, 3407, 3408, 3553, 3552
 3385, 3408, 3409, 3554, 3553
 3386, 3409, 3410, 3555, 3554
 3387, 3410, 3411, 3556, 3555
 3388, 3411, 3412, 3557, 3556
 3389, 3412, 3413, 3558, 3557
 3390, 3413, 3414, 3559, 3558
 3391, 3414, 3415, 3560, 3559
 3392, 3415, 3416, 3561, 3560
 3393, 3416, 3417, 3562, 3561
 3394, 3417, 3418, 3563, 3562
 3395, 3418, 3419, 3564, 3563
 3396, 3419, 3420, 3565, 3564
 3397, 3420, 3421, 3566, 3565
 3398, 3421, 3422, 3567, 3566
 3399, 3422, 3423, 3568, 3567
 3400, 3423, 3424, 3569, 3568
 3401, 3424, 3425, 3570, 3569
 3402, 3425, 3426, 3571, 3570
 3403, 3426, 3427, 3572, 3571
 3404, 3427, 3428, 3573, 3572
 3405, 3428, 3429, 3574, 3573
 3406, 3429, 3430, 3575, 3574
 3407, 3430, 3431, 3576, 3575
 3408, 3431, 3432, 3577, 3576
 3409, 3432, 3433, 3578, 3577
 3410, 3433, 3434, 3579, 3578
 3411, 3434, 3435, 3580, 3579
 3412, 3435, 3436, 3581, 3580
 3413, 3436, 3437, 3582, 3581
 3414, 3437, 3438, 3583, 3582
 3415, 3438, 3439, 3584, 3583
 3416, 3439, 3440, 3585, 3584
 3417, 3440, 3441, 3586, 3585
 3418, 3441, 3442, 3587, 3586
 3419, 3442, 3443, 3588, 3587
 3420, 3443, 3444, 3589, 3588
 3421, 3444, 3445, 3590, 3589
 3422, 3445, 3446, 3591, 3590
 3423, 3446, 3447, 3592, 3591
 3424, 3447, 3448, 3593, 3592
 3425, 3448, 3449, 3594, 3593
 3426, 3449, 3450, 3595, 3594
 3427, 3450, 3451, 3596, 3595
 3428, 3451, 3452, 3597, 3596
 3429, 3452, 3453, 3598, 3597
 3430, 3453, 3454, 3599, 3598
 3431, 3454, 3455, 3600, 3599
 3432, 3455, 3456, 3601, 3600
 3433, 3456, 3457, 3602, 3601
 3434, 3457, 3458, 3603, 3602
 3435, 3458, 3459, 3604, 3603
 3436, 3459, 3460, 3605, 3604
 3437, 3460, 3461, 3606, 3605
 3438, 3461, 3462, 3607, 3606
 3439, 3462, 3463, 3608, 3607
 3440, 3463, 3464, 3609, 3608
 3441, 3464, 3465, 3610, 3609
 3442, 3465, 3466, 3611, 3610
 3443, 3466, 3467, 3612, 3611
 3444, 3467, 3468, 3613, 3612
 3445, 3468, 3469, 3614, 3613
 3446, 3469, 3470, 3615, 3614
 3447, 3470, 3471, 3616, 3615
 3448, 3471, 3472, 3617, 3616
 3449, 3472, 3473, 3618, 3617
 3450, 3473, 3474, 3619, 3618
 3451, 3474, 3475, 3620, 3619
 3452, 3475, 3476, 3621, 3620
 3453, 3476, 3477, 3622, 3621
 3454, 3477, 3478, 3623, 3622
 3455, 3478, 3479, 3624, 3623
 3456, 3479, 3480, 3625, 3624
*ELSET, ELSET=ROW0
 1,2,3,4,5,6,7,8,9,10,11,12,13,14,15,16
 17,18,19,20,21,22,23,24,25,26,27,28,29,30,31,32
 33,34,35,36,37,38,39,40,41,42,43,44,45,46,47,48
 49,50,51,52,53,54,55,56,57,58,59,60,61,62,63,64
 65,66,67,68,69,70,71,72,73,74,75,76,77,78,79,80
 81,82,83,84,85,86,87,88,89,90,91,92,93,94,95,96
 97,98,99,100,101,102,103,104,105,106,107,108,109,110,111,112
 113,114,115,116,117,118,119,120,121,122,123,124,125,126,127,128
 129,130,131,132,133,134,135,136,137,138,139,140,141,142,143,144
*ELSET, ELSET=ROW1
 145,146,147,148,149,150,151,152,153,154,155,156,157,158,159,160
 161,162,163,164,165,166,167,168,169,170,171,172,173,174,175,176
 177,178,179,180,181,182,183,184,185,186,187,188,189,190,191,192
 193,194,195,196,197,198,199,200,201,202,203,204,205,206,207,208
 209,210,211,212,213,214,215,216,217,218,219,220,221,222,223,224
 225,226,227,228,229,230,231,232,233,234,235,236,237,238,239,240
 241,242,243,244,245,246,247,248,249,250,251,252,253,254,255,256
 257,258,259,260,261,262,263,264,265,266,267,268,269,270,271,272
 273,274,275,276,277,278,279,280,281,282,283,284,285,286,287,288
*ELSET, ELSET=ROW2
 289,290,291,292,293,294,295,296,297,298,299,300,301,302,303,304
 305,306,307,308,309,310,311,312,313,314,315,316,317,318,319,320
 321,322,323,324,325,326,327,328,329,330,331,332,333,334,335,336
 337,338,339,340,341,342,343,344,345,346,347,348,349,350,351,352
 353,354,355,356,357,358,359,360,361,362,363,364,365,366,367,368
 369,370,371,372,373,374,375,376,377,378,379,380,381,382,383,384
 385,386,387,388,389,390,391,392,393,394,395,396,397,398,399,400
 401,402,403,404,405,406,407,408,409,410,411,412,413,414,415,416
 417,418,419,420,421,422,423,424,425,426,427,428,429,430,431,432
*ELSET, ELSET=ROW3
 433,434,435,436,437,438,439,440,441,442,443,444,445,446,447,448
 449,450,451,452,453,454,455,456,457,458,459,460,461,462,463,464
 465,466,467,468,469,470,471,472,473,474,475,476,477,478,479,480
 481,482,483,484,485,486,487,488,489,490,491,492,493,494,495,496
 497,498,499,500,501,502,503,504,505,506,507,508,509,510,511,512
 513,514,515,516,517,518,519,520,521,522,523,524,525,526,527,528
 529,530,531,532,533,534,535,536,537,538,539,540,541,542,543,544
 545,546,547,548,549,550,551,552,553,554,555,556,557,558,559,560
 561,562,563,564,565,566,567,568,569,570,571,572,573,574,575,576
*ELSET, ELSET=ROW4
 577,578,579,580,581,582,583,584,585,586,587,588,589,590,591,592
 593,594,595,596,597,598,599,600,601,602,603,604,605,606,607,608
 609,610,611,612,613,614,615,616,617,618,619,620,621,622,623,624
 625,626,627,628,629,630,631,632,633,634,635,636,637,638,639,640
 641,642,643,644,645,646,647,648,649,650,651,652,653,654,655,656
 657,658,659,660,661,662,663,664,665,666,667,668,669,670,671,672
 673,674,675,676,677,678,679,680,681,682,683,684,685,686,687,688
 689,690,691,692,693,694,695,696,697,698,699,700,701,702,703,704
 705,706,707,708,709,710,711,712,713,714,715,716,717,718,719,720
*ELSET, ELSET=ROW5
 721,722,723,724,725,726,727,728,729,730,731,732,733,734,735,736
 737,738,739,740,741,742,743,744,745,746,747,748,749,750,751,752
 753,754,755,756,757,758,759,760,761,762,763,764,765,766,767,768
 769,770,771,772,773,774,775,776,777,778,779,780,781,782,783,784
 785,786,787,788,789,790,791,792,793,794,795,796,797,798,799,800
 801,802,803,804,805,806,807,808,809,810,811,812,813,814,815,816
 817,818,819,820,821,822,823,824,825,826,827,828,829,830,831,832
 833,834,835,836,837,838,839,840,841,842,843,844,845,846,847,848
 849,850,851,852,853,854,855,856,857,858,859,860,861,862,863,864
*ELSET, ELSET=ROW6
 865,866,867,868,869,870,871,872,873,874,875,876,877,878,879,880
 881,882,883,884,885,886,887,888,889,890,891,892,893,894,895,896
 897,898,899,900,901,902,903,904,905,906,907,908,909,910,911,912
 913,914,915,916,917,918,919,920,921,922,923,924,925,926,927,928
 929,930,931,932,933,934,935,936,937,938,939,940,941,942,943,944
 945,946,947,948,949,950,951,952,953,954,955,956,957,958,959,960
 961,962,963,964,965,966,967,968,969,970,971,972,973,974,975,976
 977,978,979,980,981,982,983,984,985,986,987,988,989,990,991,992
 993,994,995,996,997,998,999,1000,1001,1002,1003,1004,1005,1006,1007,1008
*ELSET, ELSET=ROW7
 1009,1010,1011,1012,1013,1014,1015,1016,1017,1018,1019,1020,1021,1022,1023,1024
 1025,1026,1027,1028,1029,1030,1031,1032,1033,1034,1035,1036,1037,1038,1039,1040
 1041,1042,1043,1044,1045,1046,1047,1048,1049,1050,1051,1052,1053,1054,1055,1056
 1057,1058,1059,1060,1061,1062,1063,1064,1065,1066,1067,1068,1069,1070,1071,1072
 1073,1074,1075,1076,1077,1078,1079,1080,1081,1082,1083,1084,1085,1086,1087,1088
 1089,1090,1091,1092,1093,1094,1095,1096,1097,1098,1099,1100,1101,1102,1103,1104
 1105,1106,1107,1108,1109,1110,1111,1112,1113,1114,1115,1116,1117,1118,1119,1120
 1121,1122,1123,1124,1125,1126,1127,1128,1129,1130,1131,1132,1133,1134,1135,1136
 1137,1138,1139,1140,1141,1142,1143,1144,1145,1146,1147,1148,1149,1150,1151,1152
*ELSET, ELSET=ROW8
 1153,1154,1155,1156,1157,1158,1159,1160,1161,1162,1163,1164,1165,1166,1167,1168
 1169,1170,1171,1172,1173,1174,1175,1176,1177,1178,1179,1180,1181,1182,1183,1184
 1185,1186,1187,1188,1189,1190,1191,1192,1193,1194,1195,1196,1197,1198,1199,1200
 1201,1202,1203,1204,1205,1206,1207,1208,1209,1210,1211,1212,1213,1214,1215,1216
 1217,1218,1219,1220,1221,1222,1223,1224,1225,1226,1227,1228,1229,1230,1231,1232
 1233,1234,1235,1236,1237,1238,1239,1240,1241,1242,1243,1244,1245,1246,1247,1248
 1249,1250,1251,1252,1253,1254,1255,1256,1257,1258,1259,1260,1261,1262,1263,1264
 1265,1266,1267,1268,1269,1270,1271,1272,1273,1274,1275,1276,1277,1278,1279,1280
 1281,1282,1283,1284,1285,1286,1287,1288,1289,1290,1291,1292,1293,1294,1295,1296
*ELSET, ELSET=ROW9
 1297,1298,1299,1300,1301,1302,1303,1304,1305,1306,1307,1308,1309,1310,1311,1312
 1313,1314,1315,1316,1317,1318,1319,1320,1321,1322,1323,1324,1325,1326,1327,1328
 1329,1330,1331,1332,1333,1334,1335,1336,1337,1338,1339,1340,1341,1342,1343,1344
 1345,1346,1347,1348,1349,1350,1351,1352,1353,1354,1355,1356,1357,1358,1359,1360
 1361,1362,1363,1364,1365,1366,1367,1368,1369,1370,1371,1372,1373,1374,1375,1376
 1377,1378,1379,1380,1381,1382,1383,1384,1385,1386,1387,1388,1389,1390,1391,1392
 1393,1394,1395,1396,1397,1398,1399,1400,1401,1402,1403,1404,1405,1406,1407,1408
 1409,1410,1411,1412,1413,1414,1415,1416,1417,1418,1419,1420,1421,1422,1423,1424
 1425,1426,1427,1428,1429,1430,1431,1432,1433,1434,1435,1436,1437,1438,1439,1440
*ELSET, ELSET=ROW10
 1441,1442,1443,1444,1445,1446,1447,1448,1449,1450,1451,1452,1453,1454,1455,1456
 1457,1458,1459,1460,1461,1462,1463,1464,1465,1466,1467,1468,1469,1470,1471,1472
 1473,1474,1475,1476,1477,1478,1479,1480,1481,1482,1483,1484,1485,1486,1487,1488
 1489,1490,1491,1492,1493,1494,1495,1496,1497,1498,1499,1500,1501,1502,1503,1504
 1505,1506,1507,1508,1509,1510,1511,1512,1513,1514,1515,1516,1517,1518,1519,1520
 1521,1522,1523,1524,1525,1526,1527,1528,1529,1530,1531,1532,1533,1534,1535,1536
 1537,1538,1539,1540,1541,1542,1543,1544,1545,1546,1547,1548,1549,1550,1551,1552
 1553,1554,1555,1556,1557,1558,1559,1560,1561,1562,1563,1564,1565,1566,1567,1568
 1569,1570,1571,1572,1573,1574,1575,1576,1577,1578,1579,1580,1581,1582,1583,1584
*ELSET, ELSET=ROW11
 1585,1586,1587,1588,1589,1590,1591,1592,1593,1594,1595,1596,1597,1598,1599,1600
 1601,1602,1603,1604,1605,1606,1607,1608,1609,1610,1611,1612,1613,1614,1615,1616
 1617,1618,1619,1620,1621,1622,1623,1624,1625,1626,1627,1628,1629,1630,1631,1632
 1633,1634,1635,1636,1637,1638,1639,1640,1641,1642,1643,1644,1645,1646,1647,1648
 1649,1650,1651,1652,1653,1654,1655,1656,1657,1658,1659,1660,1661,1662,1663,1664
 1665,1666,1667,1668,1669,1670,1671,1672,1673,1674,1675,1676,1677,1678,1679,1680
 1681,1682,1683,1684,1685,1686,1687,1688,1689,1690,1691,1692,1693,1694,1695,1696
 1697,1698,1699,1700,1701,1702,1703,1704,1705,1706,1707,1708,1709,1710,1711,1712
 1713,1714,1715,1716,1717,1718,1719,1720,1721,1722,1723,1724,1725,1726,1727,1728
*ELSET, ELSET=ROW12
 1729,1730,1731,1732,1733,1734,1735,1736,1737,1738,1739,1740,1741,1742,1743,1744
 1745,1746,1747,1748,1749,1750,1751,1752,1753,1754,1755,1756,1757,1758,1759,1760
 1761,1762,1763,1764,1765,1766,1767,1768,1769,1770,1771,1772,1773,1774,1775,1776
 1777,1778,1779,1780,1781,1782,1783,1784,1785,1786,1787,1788,1789,1790,1791,1792
 1793,1794,1795,1796,1797,1798,1799,1800,1801,1802,1803,1804,1805,1806,1807,1808
 1809,1810,1811,1812,1813,1814,1815,1816,1817,1818,1819,1820,1821,1822,1823,1824
 1825,1826,1827,1828,1829,1830,1831,1832,1833,1834,1835,1836,1837,1838,1839,1840
 1841,1842,1843,1844,1845,1846,1847,1848,1849,1850,1851,1852,1853,1854,1855,1856
 1857,1858,1859,1860,1861,1862,1863,1864,1865,1866,1867,1868,1869,1870,1871,1872
*ELSET, ELSET=ROW13
 1873,1874,1875,1876,1877,1878,1879,1880,1881,1882,1883,1884,1885,1886,1887,1888
 1889,1890,1891,1892,1893,1894,1895,1896,1897,1898,1899,1900,1901,1902,1903,1904
 1905,1906,1907,1908,1909,1910,1911,1912,1913,1914,1915,1916,1917,1918,1919,1920
 1921,1922,1923,1924,1925,1926,1927,1928,1929,1930,1931,1932,1933,1934,1935,1936
 1937,1938,1939,1940,1941,1942,1943,1944,1945,1946,1947,1948,1949,1950,1951,1952
 1953,1954,1955,1956,1957,1958,1959,1960,1961,1962,1963,1964,1965,1966,1967,1968
 1969,1970,1971,1972,1973,1974,1975,1976,1977,1978,1979,1980,1981,1982,1983,1984
 1985,1986,1987,1988,1989,1990,1991,1992,1993,1994,1995,1996,1997,1998,1999,2000
 2001,2002,2003,2004,2005,2006,2007,2008,2009,2010,2011,2012,2013,2014,2015,2016
*ELSET, ELSET=ROW14
 2017,2018,2019,2020,2021,2022,2023,2024,2025,2026,2027,2028,2029,2030,2031,2032
 2033,2034,2035,2036,2037,2038,2039,2040,2041,2042,2043,2044,2045,2046,2047,2048
 2049,2050,2051,2052,2053,2054,2055,2056,2057,2058,2059,2060,2061,2062,2063,2064
 2065,2066,2067,2068,2069,2070,2071,2072,2073,2074,2075,2076,2077,2078,2079,2080
 2081,2082,2083,2084,2085,2086,2087,2088,2089,2090,2091,2092,2093,2094,2095,2096
 2097,2098,2099,2100,2101,2102,2103,2104,2105,2106,2107,2108,2109,2110,2111,2112
 2113,2114,2115,2116,2117,2118,2119,2120,2121,2122,2123,2124,2125,2126,2127,2128
 2129,2130,2131,2132,2133,2134,2135,2136,2137,2138,2139,2140,2141,2142,2143,2144
 2145,2146,2147,2148,2149,2150,2151,2152,2153,2154,2155,2156,2157,2158,2159,2160
*ELSET, ELSET=ROW15
 2161,2162,2163,2164,2165,2166,2167,2168,2169,2170,2171,2172,2173,2174,2175,2176
 2177,2178,2179,2180,2181,2182,2183,2184,2185,2186,2187,2188,2189,2190,2191,2192
 2193,2194,2195,2196,2197,2198,2199,2200,2201,2202,2203,2204,2205,2206,2207,2208
 2209,2210,2211,2212,2213,2214,2215,2216,2217,2218,2219,2220,2221,2222,2223,2224
 2225,2226,2227,2228,2229,2230,2231,2232,2233,2234,2235,2236,2237,2238,2239,2240
 2241,2242,2243,2244,2245,2246,2247,2248,2249,2250,2251,2252,2253,2254,2255,2256
 2257,2258,2259,2260,2261,2262,2263,2264,2265,2266,2267,2268,2269,2270,2271,2272
 2273,2274,2275,2276,2277,2278,2279,2280,2281,2282,2283,2284,2285,2286,2287,2288
 2289,2290,2291,2292,2293,2294,2295,2296,2297,2298,2299,2300,2301,2302,2303,2304
*ELSET, ELSET=ROW16
 2305,2306,2307,2308,2309,2310,2311,2312,2313,2314,2315,2316,2317,2318,2319,2320
 2321,2322,2323,2324,2325,2326,2327,2328,2329,2330,2331,2332,2333,2334,2335,2336
 2337,2338,2339,2340,2341,2342,2343,2344,2345,2346,2347,2348,2349,2350,2351,2352
 2353,2354,2355,2356,2357,2358,2359,2360,2361,2362,2363,2364,2365,2366,2367,2368
 2369,2370,2371,2372,2373,2374,2375,2376,2377,2378,2379,2380,2381,2382,2383,2384
 2385,2386,2387,2388,2389,2390,2391,2392,2393,2394,2395,2396,2397,2398,2399,2400
 2401,2402,2403,2404,2405,2406,2407,2408,2409,2410,2411,2412,2413,2414,2415,2416
 2417,2418,2419,2420,2421,2422,2423,2424,2425,2426,2427,2428,2429,2430,2431,2432
 2433,2434,2435,2436,2437,2438,2439,2440,2441,2442,2443,2444,2445,2446,2447,2448
*ELSET, ELSET=ROW17
 2449,2450,2451,2452,2453,2454,2455,2456,2457,2458,2459,2460,2461,2462,2463,2464
 2465,2466,2467,2468,2469,2470,2471,2472,2473,2474,2475,2476,2477,2478,2479,2480
 2481,2482,2483,2484,2485,2486,2487,2488,2489,2490,2491,2492,2493,2494,2495,2496
 2497,2498,2499,2500,2501,2502,2503,2504,2505,2506,2507,2508,2509,2510,2511,2512
 2513,2514,2515,2516,2517,2518,2519,2520,2521,2522,2523,2524,2525,2526,2527,2528
 2529,2530,2531,2532,2533,2534,2535,2536,2537,2538,2539,2540,2541,2542,2543,2544
 2545,2546,2547,2548,2549,2550,2551,2552,2553,2554,2555,2556,2557,2558,2559,2560
 2561,2562,2563,2564,2565,2566,2567,2568,2569,2570,2571,2572,2573,2574,2575,2576
 2577,2578,2579,2580,2581,2582,2583,2584,2585,2586,2587,2588,2589,2590,2591,2592
*ELSET, ELSET=ROW18
 2593,2594,2595,2596,2597,2598,2599,2600,2601,2602,2603,2604,2605,2606,2607,2608
 2609,2610,2611,2612,2613,2614,2615,2616,2617,2618,2619,2620,2621,2622,2623,2624
 2625,2626,2627,2628,2629,2630,2631,2632,2633,2634,2635,2636,2637,2638,2639,2640
 2641,2642,2643,2644,2645,2646,2647,2648,2649,2650,2651,2652,2653,2654,2655,2656
 2657,2658,2659,2660,2661,2662,2663,2664,2665,2666,2667,2668,2669,2670,2671,2672
 2673,2674,2675,2676,2677,2678,2679,2680,2681,2682,2683,2684,2685,2686,2687,2688
 2689,2690,2691,2692,2693,2694,2695,2696,2697,2698,2699,2700,2701,2702,2703,2704
 2705,2706,2707,2708,2709,2710,2711,2712,2713,2714,2715,2716,2717,2718,2719,2720
 2721,2722,2723,2724,2725,2726,2727,2728,2729,2730,2731,2732,2733,2734,2735,2736
*ELSET, ELSET=ROW19
 2737,2738,2739,2740,2741,2742,2743,2744,2745,2746,2747,2748,2749,2750,2751,2752
 2753,2754,2755,2756,2757,2758,2759,2760,2761,2762,2763,2764,2765,2766,2767,2768
 2769,2770,2771,2772,2773,2774,2775,2776,2777,2778,2779,2780,2781,2782,2783,2784
 2785,2786,2787,2788,2789,2790,2791,2792,2793,2794,2795,2796,2797,2798,2799,2800
 2801,2802,2803,2804,2805,2806,2807,2808,2809,2810,2811,2812,2813,2814,2815,2816
 2817,2818,2819,2820,2821,2822,2823,2824,2825,2826,2827,2828,2829,2830,2831,2832
 2833,2834,2835,2836,2837,2838,2839,2840,2841,2842,2843,2844,2845,2846,2847,2848
 2849,2850,2851,2852,2853,2854,2855,2856,2857,2858,2859,2860,2861,2862,2863,2864
 2865,2866,2867,2868,2869,2870,2871,2872,2873,2874,2875,2876,2877,2878,2879,2880
*ELSET, ELSET=ROW20
 2881,2882,2883,2884,2885,2886,2887,2888,2889,2890,2891,2892,2893,2894,2895,2896
 2897,2898,2899,2900,2901,2902,2903,2904,2905,2906,2907,2908,2909,2910,2911,2912
 2913,2914,2915,2916,2917,2918,2919,2920,2921,2922,2923,2924,2925,2926,2927,2928
 2929,2930,2931,2932,2933,2934,2935,2936,2937,2938,2939,2940,2941,2942,2943,2944
 2945,2946,2947,2948,2949,2950,2951,2952,2953,2954,2955,2956,2957,2958,2959,2960
 2961,2962,2963,2964,2965,2966,2967,2968,2969,2970,2971,2972,2973,2974,2975,2976
 2977,2978,2979,2980,2981,2982,2983,2984,2985,2986,2987,2988,2989,2990,2991,2992
 2993,2994,2995,2996,2997,2998,2999,3000,3001,3002,3003,3004,3005,3006,3007,3008
 3009,3010,3011,3012,3013,3014,3015,3016,3017,3018,3019,3020,3021,3022,3023,3024
*ELSET, ELSET=ROW21
 3025,3026,3027,3028,3029,3030,3031,3032,3033,3034,3035,3036,3037,3038,3039,3040
 3041,3042,3043,3044,3045,3046,3047,3048,3049,3050,3051,3052,3053,3054,3055,3056
 3057,3058,3059,3060,3061,3062,3063,3064,3065,3066,3067,3068,3069,3070,3071,3072
 3073,3074,3075,3076,3077,3078,3079,3080,3081,3082,3083,3084,3085,3086,3087,3088
 3089,3090,3091,3092,3093,3094,3095,3096,3097,3098,3099,3100,3101,3102,3103,3104
 3105,3106,3107,3108,3109,3110,3111,3112,3113,3114,3115,3116,3117,3118,3119,3120
 3121,3122,3123,3124,3125,3126,3127,3128,3129,3130,3131,3132,3133,3134,3135,3136
 3137,3138,3139,3140,3141,3142,3143,3144,3145,3146,3147,3148,3149,3150,3151,3152
 3153,3154,3155,3156,3157,3158,3159,3160,3161,3162,3163,3164,3165,3166,3167,3168
*ELSET, ELSET=ROW22
 3169,3170,3171,3172,3173,3174,3175,3176,3177,3178,3179,3180,3181,3182,3183,3184
 3185,3186,3187,3188,3189,3190,3191,3192,3193,3194,3195,3196,3197,3198,3199,3200
 3201,3202,3203,3204,3205,3206,3207,3208,3209,3210,3211,3212,3213,3214,3215,3216
 3217,3218,3219,3220,3221,3222,3223,3224,3225,3226,3227,3228,3229,3230,3231,3232
 3233,3234,3235,3236,3237,3238,3239,3240,3241,3242,3243,3244,3245,3246,3247,3248
 3249,3250,3251,3252,3253,3254,3255,3256,3257,3258,3259,3260,3261,3262,3263,3264
 3265,3266,3267,3268,3269,3270,3271,3272,3273,3274,3275,3276,3277,3278,3279,3280
 3281,3282,3283,3284,3285,3286,3287,3288,3289,3290,3291,3292,3293,3294,3295,3296
 3297,3298,3299,3300,3301,3302,3303,3304,3305,3306,3307,3308,3309,3310,3311,3312
*ELSET, ELSET=ROW23
 3313,3314,3315,3316,3317,3318,3319,3320,3321,3322,3323,3324,3325,3326,3327,3328
 3329,3330,3331,3332,3333,3334,3335,3336,3337,3338,3339,3340,3341,3342,3343,3344
 3345,3346,3347,3348,3349,3350,3351,3352,3353,3354,3355,3356,3357,3358,3359,3360
 3361,3362,3363,3364,3365,3366,3367,3368,3369,3370,3371,3372,3373,3374,3375,3376
 3377,3378,3379,3380,3381,3382,3383,3384,3385,3386,3387,3388,3389,3390,3391,3392
 3393,3394,3395,3396,3397,3398,3399,3400,3401,3402,3403,3404,3405,3406,3407,3408
 3409,3410,3411,3412,3413,3414,3415,3416,3417,3418,3419,3420,3421,3422,3423,3424
 3425,3426,3427,3428,3429,3430,3431,3432,3433,3434,3435,3436,3437,3438,3439,3440
 3441,3442,3443,3444,3445,3446,3447,3448,3449,3450,3451,3452,3453,3454,3455,3456
*ORIENTATION, NAME=ORI, SYSTEM=RECTANGULAR, DEFINITION=COORDINATES
 1.0, 0.0, 0.0, 0.0, 1.0, 0.0
 3, 0.0
*SOLID SECTION, ELSET=ROW0, MATERIAL=MAT0, ORIENTATION=ORI
*SOLID SECTION, ELSET=ROW1, MATERIAL=MAT1, ORIENTATION=ORI
*SOLID SECTION, ELSET=ROW2, MATERIAL=MAT2, ORIENTATION=ORI
*SOLID SECTION, ELSET=ROW3, MATERIAL=MAT3, ORIENTATION=ORI
*SOLID SECTION, ELSET=ROW4, MATERIAL=MAT4, ORIENTATION=ORI
*SOLID SECTION, ELSET=ROW5, MATERIAL=MAT5, ORIENTATION=ORI
*SOLID SECTION, ELSET=ROW6, MATERIAL=MAT6, ORIENTATION=ORI
*SOLID SECTION, ELSET=ROW7, MATERIAL=MAT7, ORIENTATION=ORI
*SOLID SECTION, ELSET=ROW8, MATERIAL=MAT8, ORIENTATION=ORI
*SOLID SECTION, ELSET=ROW9, MATERIAL=MAT9, ORIENTATION=ORI
*SOLID SECTION, ELSET=ROW10, MATERIAL=MAT10, ORIENTATION=ORI
*SOLID SECTION, ELSET=ROW11, MATERIAL=MAT11, ORIENTATION=ORI
*SOLID SECTION, ELSET=ROW12, MATERIAL=MAT12, ORIENTATION=ORI
*SOLID SECTION, ELSET=ROW13, MATERIAL=MAT13, ORIENTATION=ORI
*SOLID SECTION, ELSET=ROW14, MATERIAL=MAT14, ORIENTATION=ORI
*SOLID SECTION, ELSET=ROW15, MATERIAL=MAT15, ORIENTATION=ORI
*SOLID SECTION, ELSET=ROW16, MATERIAL=MAT16, ORIENTATION=ORI
*SOLID SECTION, ELSET=ROW17, MATERIAL=MAT17, ORIENTATION=ORI
*SOLID SECTION, ELSET=ROW18, MATERIAL=MAT18, ORIENTATION=ORI
*SOLID SECTION, ELSET=ROW19, MATERIAL=MAT19, ORIENTATION=ORI
*SOLID SECTION, ELSET=ROW20, MATERIAL=MAT20, ORIENTATION=ORI
*SOLID SECTION, ELSET=ROW21, MATERIAL=MAT21, ORIENTATION=ORI
*SOLID SECTION, ELSET=ROW22, MATERIAL=MAT22, ORIENTATION=ORI
*SOLID SECTION, ELSET=ROW23, MATERIAL=MAT23, ORIENTATION=ORI
*MATERIAL, NAME=MAT0
*ELASTIC
 5000.0, 0.450
*EXPANSION, TYPE=ORTHO, ZERO=0.0
 0.000000, 0.000000, 0.000000
*MATERIAL, NAME=MAT1
*ELASTIC
 5000.0, 0.450
*EXPANSION, TYPE=ORTHO, ZERO=0.0
 0.000000, 0.000000, 0.000000
*MATERIAL, NAME=MAT2
*ELASTIC
 5000.0, 0.450
*EXPANSION, TYPE=ORTHO, ZERO=0.0
 0.273364, 0.273364, 0.273364
*MATERIAL, NAME=MAT3
*ELASTIC
 5000.0, 0.450
*EXPANSION, TYPE=ORTHO, ZERO=0.0
 0.338698, 0.338698, 0.338698
*MATERIAL, NAME=MAT4
*ELASTIC
 5000.0, 0.450
*EXPANSION, TYPE=ORTHO, ZERO=0.0
 0.258713, 0.258713, 0.258713
*MATERIAL, NAME=MAT5
*ELASTIC
 5000.0, 0.450
*EXPANSION, TYPE=ORTHO, ZERO=0.0
 0.036460, 0.036460, 0.036460
*MATERIAL, NAME=MAT6
*ELASTIC
 5000.0, 0.450
*EXPANSION, TYPE=ORTHO, ZERO=0.0
 0.000000, 0.000000, 0.000000
*MATERIAL, NAME=MAT7
*ELASTIC
 5000.0, 0.450
*EXPANSION, TYPE=ORTHO, ZERO=0.0
 0.000000, 0.000000, 0.000000
*MATERIAL, NAME=MAT8
*ELASTIC
 5000.0, 0.450
*EXPANSION, TYPE=ORTHO, ZERO=0.0
 0.000000, 0.000000, 0.000000
*MATERIAL, NAME=MAT9
*ELASTIC
 5000.0, 0.450
*EXPANSION, TYPE=ORTHO, ZERO=0.0
 0.000000, 0.000000, 0.000000
*MATERIAL, NAME=MAT10
*ELASTIC
 5000.0, 0.450
*EXPANSION, TYPE=ORTHO, ZERO=0.0
 0.000000, 0.000000, 0.000000
*MATERIAL, NAME=MAT11
*ELASTIC
 5000.0, 0.450
*EXPANSION, TYPE=ORTHO, ZERO=0.0
 0.000000, 0.000000, 0.000000
*MATERIAL, NAME=MAT12
*ELASTIC
 5000.0, 0.450
*EXPANSION, TYPE=ORTHO, ZERO=0.0
 0.000000, 0.000000, 0.000000
*MATERIAL, NAME=MAT13
*ELASTIC
 5000.0, 0.450
*EXPANSION, TYPE=ORTHO, ZERO=0.0
 0.027295, 0.027295, 0.027295
*MATERIAL, NAME=MAT14
*ELASTIC
 5000.0, 0.450
*EXPANSION, TYPE=ORTHO, ZERO=0.0
 0.054569, 0.054569, 0.054569
*MATERIAL, NAME=MAT15
*ELASTIC
 5000.0, 0.450
*EXPANSION, TYPE=ORTHO, ZERO=0.0
 0.075902, 0.075902, 0.075902
*MATERIAL, NAME=MAT16
*ELASTIC
 5000.0, 0.450
*EXPANSION, TYPE=ORTHO, ZERO=0.0
 0.092363, 0.092363, 0.092363
*MATERIAL, NAME=MAT17
*ELASTIC
 5000.0, 0.450
*EXPANSION, TYPE=ORTHO, ZERO=0.0
 0.102204, 0.102204, 0.102204
*MATERIAL, NAME=MAT18
*ELASTIC
 5000.0, 0.450
*EXPANSION, TYPE=ORTHO, ZERO=0.0
 0.109119, 0.109119, 0.109119
*MATERIAL, NAME=MAT19
*ELASTIC
 5000.0, 0.450
*EXPANSION, TYPE=ORTHO, ZERO=0.0
 0.114510, 0.114510, 0.114510
*MATERIAL, NAME=MAT20
*ELASTIC
 5000.0, 0.450
*EXPANSION, TYPE=ORTHO, ZERO=0.0
 0.119703, 0.119703, 0.119703
*MATERIAL, NAME=MAT21
*ELASTIC
 5000.0, 0.450
*EXPANSION, TYPE=ORTHO, ZERO=0.0
 0.125755, 0.125755, 0.125755
*MATERIAL, NAME=MAT22
*ELASTIC
 5000.0, 0.450
*EXPANSION, TYPE=ORTHO, ZERO=0.0
 0.131235, 0.131235, 0.131235
*MATERIAL, NAME=MAT23
*ELASTIC
 5000.0, 0.450
*EXPANSION, TYPE=ORTHO, ZERO=0.0
 0.132749, 0.132749, 0.132749
*NSET, NSET=BOTTOM
 1,2,3,4,5,6,7,8,9,10,11,12,13,14,15,16
 17,18,19,20,21,22,23,24,25,26,27,28,29,30,31,32
 33,34,35,36,37,38,39,40,41,42,43,44,45,46,47,48
 49,50,51,52,53,54,55,56,57,58,59,60,61,62,63,64
 65,66,67,68,69,70,71,72,73,74,75,76,77,78,79,80
 81,82,83,84,85,86,87,88,89,90,91,92,93,94,95,96
 97,98,99,100,101,102,103,104,105,106,107,108,109,110,111,112
 113,114,115,116,117,118,119,120,121,122,123,124,125,126,127,128
 129,130,131,132,133,134,135,136,137,138,139,140,141,142,143,144
 145
*NSET, NSET=LEFT
 1,146,291,436,581,726,871,1016,1161,1306,1451,1596,1741,1886,2031,2176
 2321,2466,2611,2756,2901,3046,3191,3336,3481
*NSET, NSET=RIGHT
 145,290,435,580,725,870,1015,1160,1305,1450,1595,1740,1885,2030,2175,2320
 2465,2610,2755,2900,3045,3190,3335,3480,3625
*NSET, NSET=ALLN
 1,2,3,4,5,6,7,8,9,10,11,12,13,14,15,16
 17,18,19,20,21,22,23,24,25,26,27,28,29,30,31,32
 33,34,35,36,37,38,39,40,41,42,43,44,45,46,47,48
 49,50,51,52,53,54,55,56,57,58,59,60,61,62,63,64
 65,66,67,68,69,70,71,72,73,74,75,76,77,78,79,80
 81,82,83,84,85,86,87,88,89,90,91,92,93,94,95,96
 97,98,99,100,101,102,103,104,105,106,107,108,109,110,111,112
 113,114,115,116,117,118,119,120,121,122,123,124,125,126,127,128
 129,130,131,132,133,134,135,136,137,138,139,140,141,142,143,144
 145,146,147,148,149,150,151,152,153,154,155,156,157,158,159,160
 161,162,163,164,165,166,167,168,169,170,171,172,173,174,175,176
 177,178,179,180,181,182,183,184,185,186,187,188,189,190,191,192
 193,194,195,196,197,198,199,200,201,202,203,204,205,206,207,208
 209,210,211,212,213,214,215,216,217,218,219,220,221,222,223,224
 225,226,227,228,229,230,231,232,233,234,235,236,237,238,239,240
 241,242,243,244,245,246,247,248,249,250,251,252,253,254,255,256
 257,258,259,260,261,262,263,264,265,266,267,268,269,270,271,272
 273,274,275,276,277,278,279,280,281,282,283,284,285,286,287,288
 289,290,291,292,293,294,295,296,297,298,299,300,301,302,303,304
 305,306,307,308,309,310,311,312,313,314,315,316,317,318,319,320
 321,322,323,324,325,326,327,328,329,330,331,332,333,334,335,336
 337,338,339,340,341,342,343,344,345,346,347,348,349,350,351,352
 353,354,355,356,357,358,359,360,361,362,363,364,365,366,367,368
 369,370,371,372,373,374,375,376,377,378,379,380,381,382,383,384
 385,386,387,388,389,390,391,392,393,394,395,396,397,398,399,400
 401,402,403,404,405,406,407,408,409,410,411,412,413,414,415,416
 417,418,419,420,421,422,423,424,425,426,427,428,429,430,431,432
 433,434,435,436,437,438,439,440,441,442,443,444,445,446,447,448
 449,450,451,452,453,454,455,456,457,458,459,460,461,462,463,464
 465,466,467,468,469,470,471,472,473,474,475,476,477,478,479,480
 481,482,483,484,485,486,487,488,489,490,491,492,493,494,495,496
 497,498,499,500,501,502,503,504,505,506,507,508,509,510,511,512
 513,514,515,516,517,518,519,520,521,522,523,524,525,526,527,528
 529,530,531,532,533,534,535,536,537,538,539,540,541,542,543,544
 545,546,547,548,549,550,551,552,553,554,555,556,557,558,559,560
 561,562,563,564,565,566,567,568,569,570,571,572,573,574,575,576
 577,578,579,580,581,582,583,584,585,586,587,588,589,590,591,592
 593,594,595,596,597,598,599,600,601,602,603,604,605,606,607,608
 609,610,611,612,613,614,615,616,617,618,619,620,621,622,623,624
 625,626,627,628,629,630,631,632,633,634,635,636,637,638,639,640
 641,642,643,644,645,646,647,648,649,650,651,652,653,654,655,656
 657,658,659,660,661,662,663,664,665,666,667,668,669,670,671,672
 673,674,675,676,677,678,679,680,681,682,683,684,685,686,687,688
 689,690,691,692,693,694,695,696,697,698,699,700,701,702,703,704
 705,706,707,708,709,710,711,712,713,714,715,716,717,718,719,720
 721,722,723,724,725,726,727,728,729,730,731,732,733,734,735,736
 737,738,739,740,741,742,743,744,745,746,747,748,749,750,751,752
 753,754,755,756,757,758,759,760,761,762,763,764,765,766,767,768
 769,770,771,772,773,774,775,776,777,778,779,780,781,782,783,784
 785,786,787,788,789,790,791,792,793,794,795,796,797,798,799,800
 801,802,803,804,805,806,807,808,809,810,811,812,813,814,815,816
 817,818,819,820,821,822,823,824,825,826,827,828,829,830,831,832
 833,834,835,836,837,838,839,840,841,842,843,844,845,846,847,848
 849,850,851,852,853,854,855,856,857,858,859,860,861,862,863,864
 865,866,867,868,869,870,871,872,873,874,875,876,877,878,879,880
 881,882,883,884,885,886,887,888,889,890,891,892,893,894,895,896
 897,898,899,900,901,902,903,904,905,906,907,908,909,910,911,912
 913,914,915,916,917,918,919,920,921,922,923,924,925,926,927,928
 929,930,931,932,933,934,935,936,937,938,939,940,941,942,943,944
 945,946,947,948,949,950,951,952,953,954,955,956,957,958,959,960
 961,962,963,964,965,966,967,968,969,970,971,972,973,974,975,976
 977,978,979,980,981,982,983,984,985,986,987,988,989,990,991,992
 993,994,995,996,997,998,999,1000,1001,1002,1003,1004,1005,1006,1007,1008
 1009,1010,1011,1012,1013,1014,1015,1016,1017,1018,1019,1020,1021,1022,1023,1024
 1025,1026,1027,1028,1029,1030,1031,1032,1033,1034,1035,1036,1037,1038,1039,1040
 1041,1042,1043,1044,1045,1046,1047,1048,1049,1050,1051,1052,1053,1054,1055,1056
 1057,1058,1059,1060,1061,1062,1063,1064,1065,1066,1067,1068,1069,1070,1071,1072
 1073,1074,1075,1076,1077,1078,1079,1080,1081,1082,1083,1084,1085,1086,1087,1088
 1089,1090,1091,1092,1093,1094,1095,1096,1097,1098,1099,1100,1101,1102,1103,1104
 1105,1106,1107,1108,1109,1110,1111,1112,1113,1114,1115,1116,1117,1118,1119,1120
 1121,1122,1123,1124,1125,1126,1127,1128,1129,1130,1131,1132,1133,1134,1135,1136
 1137,1138,1139,1140,1141,1142,1143,1144,1145,1146,1147,1148,1149,1150,1151,1152
 1153,1154,1155,1156,1157,1158,1159,1160,1161,1162,1163,1164,1165,1166,1167,1168
 1169,1170,1171,1172,1173,1174,1175,1176,1177,1178,1179,1180,1181,1182,1183,1184
 1185,1186,1187,1188,1189,1190,1191,1192,1193,1194,1195,1196,1197,1198,1199,1200
 1201,1202,1203,1204,1205,1206,1207,1208,1209,1210,1211,1212,1213,1214,1215,1216
 1217,1218,1219,1220,1221,1222,1223,1224,1225,1226,1227,1228,1229,1230,1231,1232
 1233,1234,1235,1236,1237,1238,1239,1240,1241,1242,1243,1244,1245,1246,1247,1248
 1249,1250,1251,1252,1253,1254,1255,1256,1257,1258,1259,1260,1261,1262,1263,1264
 1265,1266,1267,1268,1269,1270,1271,1272,1273,1274,1275,1276,1277,1278,1279,1280
 1281,1282,1283,1284,1285,1286,1287,1288,1289,1290,1291,1292,1293,1294,1295,1296
 1297,1298,1299,1300,1301,1302,1303,1304,1305,1306,1307,1308,1309,1310,1311,1312
 1313,1314,1315,1316,1317,1318,1319,1320,1321,1322,1323,1324,1325,1326,1327,1328
 1329,1330,1331,1332,1333,1334,1335,1336,1337,1338,1339,1340,1341,1342,1343,1344
 1345,1346,1347,1348,1349,1350,1351,1352,1353,1354,1355,1356,1357,1358,1359,1360
 1361,1362,1363,1364,1365,1366,1367,1368,1369,1370,1371,1372,1373,1374,1375,1376
 1377,1378,1379,1380,1381,1382,1383,1384,1385,1386,1387,1388,1389,1390,1391,1392
 1393,1394,1395,1396,1397,1398,1399,1400,1401,1402,1403,1404,1405,1406,1407,1408
 1409,1410,1411,1412,1413,1414,1415,1416,1417,1418,1419,1420,1421,1422,1423,1424
 1425,1426,1427,1428,1429,1430,1431,1432,1433,1434,1435,1436,1437,1438,1439,1440
 1441,1442,1443,1444,1445,1446,1447,1448,1449,1450,1451,1452,1453,1454,1455,1456
 1457,1458,1459,1460,1461,1462,1463,1464,1465,1466,1467,1468,1469,1470,1471,1472
 1473,1474,1475,1476,1477,1478,1479,1480,1481,1482,1483,1484,1485,1486,1487,1488
 1489,1490,1491,1492,1493,1494,1495,1496,1497,1498,1499,1500,1501,1502,1503,1504
 1505,1506,1507,1508,1509,1510,1511,1512,1513,1514,1515,1516,1517,1518,1519,1520
 1521,1522,1523,1524,1525,1526,1527,1528,1529,1530,1531,1532,1533,1534,1535,1536
 1537,1538,1539,1540,1541,1542,1543,1544,1545,1546,1547,1548,1549,1550,1551,1552
 1553,1554,1555,1556,1557,1558,1559,1560,1561,1562,1563,1564,1565,1566,1567,1568
 1569,1570,1571,1572,1573,1574,1575,1576,1577,1578,1579,1580,1581,1582,1583,1584
 1585,1586,1587,1588,1589,1590,1591,1592,1593,1594,1595,1596,1597,1598,1599,1600
 1601,1602,1603,1604,1605,1606,1607,1608,1609,1610,1611,1612,1613,1614,1615,1616
 1617,1618,1619,1620,1621,1622,1623,1624,1625,1626,1627,1628,1629,1630,1631,1632
 1633,1634,1635,1636,1637,1638,1639,1640,1641,1642,1643,1644,1645,1646,1647,1648
 1649,1650,1651,1652,1653,1654,1655,1656,1657,1658,1659,1660,1661,1662,1663,1664
 1665,1666,1667,1668,1669,1670,1671,1672,1673,1674,1675,1676,1677,1678,1679,1680
 1681,1682,1683,1684,1685,1686,1687,1688,1689,1690,1691,1692,1693,1694,1695,1696
 1697,1698,1699,1700,1701,1702,1703,1704,1705,1706,1707,1708,1709,1710,1711,1712
 1713,1714,1715,1716,1717,1718,1719,1720,1721,1722,1723,1724,1725,1726,1727,1728
 1729,1730,1731,1732,1733,1734,1735,1736,1737,1738,1739,1740,1741,1742,1743,1744
 1745,1746,1747,1748,1749,1750,1751,1752,1753,1754,1755,1756,1757,1758,1759,1760
 1761,1762,1763,1764,1765,1766,1767,1768,1769,1770,1771,1772,1773,1774,1775,1776
 1777,1778,1779,1780,1781,1782,1783,1784,1785,1786,1787,1788,1789,1790,1791,1792
 1793,1794,1795,1796,1797,1798,1799,1800,1801,1802,1803,1804,1805,1806,1807,1808
 1809,1810,1811,1812,1813,1814,1815,1816,1817,1818,1819,1820,1821,1822,1823,1824
 1825,1826,1827,1828,1829,1830,1831,1832,1833,1834,1835,1836,1837,1838,1839,1840
 1841,1842,1843,1844,1845,1846,1847,1848,1849,1850,1851,1852,1853,1854,1855,1856
 1857,1858,1859,1860,1861,1862,1863,1864,1865,1866,1867,1868,1869,1870,1871,1872
 1873,1874,1875,1876,1877,1878,1879,1880,1881,1882,1883,1884,1885,1886,1887,1888
 1889,1890,1891,1892,1893,1894,1895,1896,1897,1898,1899,1900,1901,1902,1903,1904
 1905,1906,1907,1908,1909,1910,1911,1912,1913,1914,1915,1916,1917,1918,1919,1920
 1921,1922,1923,1924,1925,1926,1927,1928,1929,1930,1931,1932,1933,1934,1935,1936
 1937,1938,1939,1940,1941,1942,1943,1944,1945,1946,1947,1948,1949,1950,1951,1952
 1953,1954,1955,1956,1957,1958,1959,1960,1961,1962,1963,1964,1965,1966,1967,1968
 1969,1970,1971,1972,1973,1974,1975,1976,1977,1978,1979,1980,1981,1982,1983,1984
 1985,1986,1987,1988,1989,1990,1991,1992,1993,1994,1995,1996,1997,1998,1999,2000
 2001,2002,2003,2004,2005,2006,2007,2008,2009,2010,2011,2012,2013,2014,2015,2016
 2017,2018,2019,2020,2021,2022,2023,2024,2025,2026,2027,2028,2029,2030,2031,2032
 2033,2034,2035,2036,2037,2038,2039,2040,2041,2042,2043,2044,2045,2046,2047,2048
 2049,2050,2051,2052,2053,2054,2055,2056,2057,2058,2059,2060,2061,2062,2063,2064
 2065,2066,2067,2068,2069,2070,2071,2072,2073,2074,2075,2076,2077,2078,2079,2080
 2081,2082,2083,2084,2085,2086,2087,2088,2089,2090,2091,2092,2093,2094,2095,2096
 2097,2098,2099,2100,2101,2102,2103,2104,2105,2106,2107,2108,2109,2110,2111,2112
 2113,2114,2115,2116,2117,2118,2119,2120,2121,2122,2123,2124,2125,2126,2127,2128
 2129,2130,2131,2132,2133,2134,2135,2136,2137,2138,2139,2140,2141,2142,2143,2144
 2145,2146,2147,2148,2149,2150,2151,2152,2153,2154,2155,2156,2157,2158,2159,2160
 2161,2162,2163,2164,2165,2166,2167,2168,2169,2170,2171,2172,2173,2174,2175,2176
 2177,2178,2179,2180,2181,2182,2183,2184,2185,2186,2187,2188,2189,2190,2191,2192
 2193,2194,2195,2196,2197,2198,2199,2200,2201,2202,2203,2204,2205,2206,2207,2208
 2209,2210,2211,2212,2213,2214,2215,2216,2217,2218,2219,2220,2221,2222,2223,2224
 2225,2226,2227,2228,2229,2230,2231,2232,2233,2234,2235,2236,2237,2238,2239,2240
 2241,2242,2243,2244,2245,2246,2247,2248,2249,2250,2251,2252,2253,2254,2255,2256
 2257,2258,2259,2260,2261,2262,2263,2264,2265,2266,2267,2268,2269,2270,2271,2272
 2273,2274,2275,2276,2277,2278,2279,2280,2281,2282,2283,2284,2285,2286,2287,2288
 2289,2290,2291,2292,2293,2294,2295,2296,2297,2298,2299,2300,2301,2302,2303,2304
 2305,2306,2307,2308,2309,2310,2311,2312,2313,2314,2315,2316,2317,2318,2319,2320
 2321,2322,2323,2324,2325,2326,2327,2328,2329,2330,2331,2332,2333,2334,2335,2336
 2337,2338,2339,2340,2341,2342,2343,2344,2345,2346,2347,2348,2349,2350,2351,2352
 2353,2354,2355,2356,2357,2358,2359,2360,2361,2362,2363,2364,2365,2366,2367,2368
 2369,2370,2371,2372,2373,2374,2375,2376,2377,2378,2379,2380,2381,2382,2383,2384
 2385,2386,2387,2388,2389,2390,2391,2392,2393,2394,2395,2396,2397,2398,2399,2400
 2401,2402,2403,2404,2405,2406,2407,2408,2409,2410,2411,2412,2413,2414,2415,2416
 2417,2418,2419,2420,2421,2422,2423,2424,2425,2426,2427,2428,2429,2430,2431,2432
 2433,2434,2435,2436,2437,2438,2439,2440,2441,2442,2443,2444,2445,2446,2447,2448
 2449,2450,2451,2452,2453,2454,2455,2456,2457,2458,2459,2460,2461,2462,2463,2464
 2465,2466,2467,2468,2469,2470,2471,2472,2473,2474,2475,2476,2477,2478,2479,2480
 2481,2482,2483,2484,2485,2486,2487,2488,2489,2490,2491,2492,2493,2494,2495,2496
 2497,2498,2499,2500,2501,2502,2503,2504,2505,2506,2507,2508,2509,2510,2511,2512
 2513,2514,2515,2516,2517,2518,2519,2520,2521,2522,2523,2524,2525,2526,2527,2528
 2529,2530,2531,2532,2533,2534,2535,2536,2537,2538,2539,2540,2541,2542,2543,2544
 2545,2546,2547,2548,2549,2550,2551,2552,2553,2554,2555,2556,2557,2558,2559,2560
 2561,2562,2563,2564,2565,2566,2567,2568,2569,2570,2571,2572,2573,2574,2575,2576
 2577,2578,2579,2580,2581,2582,2583,2584,2585,2586,2587,2588,2589,2590,2591,2592
 2593,2594,2595,2596,2597,2598,2599,2600,2601,2602,2603,2604,2605,2606,2607,2608
 2609,2610,2611,2612,2613,2614,2615,2616,2617,2618,2619,2620,2621,2622,2623,2624
 2625,2626,2627,2628,2629,2630,2631,2632,2633,2634,2635,2636,2637,2638,2639,2640
 2641,2642,2643,2644,2645,2646,2647,2648,2649,2650,2651,2652,2653,2654,2655,2656
 2657,2658,2659,2660,2661,2662,2663,2664,2665,2666,2667,2668,2669,2670,2671,2672
 2673,2674,2675,2676,2677,2678,2679,2680,2681,2682,2683,2684,2685,2686,2687,2688
 2689,2690,2691,2692,2693,2694,2695,2696,2697,2698,2699,2700,2701,2702,2703,2704
 2705,2706,2707,2708,2709,2710,2711,2712,2713,2714,2715,2716,2717,2718,2719,2720
 2721,2722,2723,2724,2725,2726,2727,2728,2729,2730,2731,2732,2733,2734,2735,2736
 2737,2738,2739,2740,2741,2742,2743,2744,2745,2746,2747,2748,2749,2750,2751,2752
 2753,2754,2755,2756,2757,2758,2759,2760,2761,2762,2763,2764,2765,2766,2767,2768
 2769,2770,2771,2772,2773,2774,2775,2776,2777,2778,2779,2780,2781,2782,2783,2784
 2785,2786,2787,2788,2789,2790,2791,2792,2793,2794,2795,2796,2797,2798,2799,2800
 2801,2802,2803,2804,2805,2806,2807,2808,2809,2810,2811,2812,2813,2814,2815,2816
 2817,2818,2819,2820,2821,2822,2823,2824,2825,2826,2827,2828,2829,2830,2831,2832
 2833,2834,2835,2836,2837,2838,2839,2840,2841,2842,2843,2844,2845,2846,2847,2848
 2849,2850,2851,2852,2853,2854,2855,2856,2857,2858,2859,2860,2861,2862,2863,2864
 2865,2866,2867,2868,2869,2870,2871,2872,2873,2874,2875,2876,2877,2878,2879,2880
 2881,2882,2883,2884,2885,2886,2887,2888,2889,2890,2891,2892,2893,2894,2895,2896
 2897,2898,2899,2900,2901,2902,2903,2904,2905,2906,2907,2908,2909,2910,2911,2912
 2913,2914,2915,2916,2917,2918,2919,2920,2921,2922,2923,2924,2925,2926,2927,2928
 2929,2930,2931,2932,2933,2934,2935,2936,2937,2938,2939,2940,2941,2942,2943,2944
 2945,2946,2947,2948,2949,2950,2951,2952,2953,2954,2955,2956,2957,2958,2959,2960
 2961,2962,2963,2964,2965,2966,2967,2968,2969,2970,2971,2972,2973,2974,2975,2976
 2977,2978,2979,2980,2981,2982,2983,2984,2985,2986,2987,2988,2989,2990,2991,2992
 2993,2994,2995,2996,2997,2998,2999,3000,3001,3002,3003,3004,3005,3006,3007,3008
 3009,3010,3011,3012,3013,3014,3015,3016,3017,3018,3019,3020,3021,3022,3023,3024
 3025,3026,3027,3028,3029,3030,3031,3032,3033,3034,3035,3036,3037,3038,3039,3040
 3041,3042,3043,3044,3045,3046,3047,3048,3049,3050,3051,3052,3053,3054,3055,3056
 3057,3058,3059,3060,3061,3062,3063,3064,3065,3066,3067,3068,3069,3070,3071,3072
 3073,3074,3075,3076,3077,3078,3079,3080,3081,3082,3083,3084,3085,3086,3087,3088
 3089,3090,3091,3092,3093,3094,3095,3096,3097,3098,3099,3100,3101,3102,3103,3104
 3105,3106,3107,3108,3109,3110,3111,3112,3113,3114,3115,3116,3117,3118,3119,3120
 3121,3122,3123,3124,3125,3126,3127,3128,3129,3130,3131,3132,3133,3134,3135,3136
 3137,3138,3139,3140,3141,3142,3143,3144,3145,3146,3147,3148,3149,3150,3151,3152
 3153,3154,3155,3156,3157,3158,3159,3160,3161,3162,3163,3164,3165,3166,3167,3168
 3169,3170,3171,3172,3173,3174,3175,3176,3177,3178,3179,3180,3181,3182,3183,3184
 3185,3186,3187,3188,3189,3190,3191,3192,3193,3194,3195,3196,3197,3198,3199,3200
 3201,3202,3203,3204,3205,3206,3207,3208,3209,3210,3211,3212,3213,3214,3215,3216
 3217,3218,3219,3220,3221,3222,3223,3224,3225,3226,3227,3228,3229,3230,3231,3232
 3233,3234,3235,3236,3237,3238,3239,3240,3241,3242,3243,3244,3245,3246,3247,3248
 3249,3250,3251,3252,3253,3254,3255,3256,3257,3258,3259,3260,3261,3262,3263,3264
 3265,3266,3267,3268,3269,3270,3271,3272,3273,3274,3275,3276,3277,3278,3279,3280
 3281,3282,3283,3284,3285,3286,3287,3288,3289,3290,3291,3292,3293,3294,3295,3296
 3297,3298,3299,3300,3301,3302,3303,3304,3305,3306,3307,3308,3309,3310,3311,3312
 3313,3314,3315,3316,3317,3318,3319,3320,3321,3322,3323,3324,3325,3326,3327,3328
 3329,3330,3331,3332,3333,3334,3335,3336,3337,3338,3339,3340,3341,3342,3343,3344
 3345,3346,3347,3348,3349,3350,3351,3352,3353,3354,3355,3356,3357,3358,3359,3360
 3361,3362,3363,3364,3365,3366,3367,3368,3369,3370,3371,3372,3373,3374,3375,3376
 3377,3378,3379,3380,3381,3382,3383,3384,3385,3386,3387,3388,3389,3390,3391,3392
 3393,3394,3395,3396,3397,3398,3399,3400,3401,3402,3403,3404,3405,3406,3407,3408
 3409,3410,3411,3412,3413,3414,3415,3416,3417,3418,3419,3420,3421,3422,3423,3424
 3425,3426,3427,3428,3429,3430,3431,3432,3433,3434,3435,3436,3437,3438,3439,3440
 3441,3442,3443,3444,3445,3446,3447,3448,3449,3450,3451,3452,3453,3454,3455,3456
 3457,3458,3459,3460,3461,3462,3463,3464,3465,3466,3467,3468,3469,3470,3471,3472
 3473,3474,3475,3476,3477,3478,3479,3480,3481,3482,3483,3484,3485,3486,3487,3488
 3489,3490,3491,3492,3493,3494,3495,3496,3497,3498,3499,3500,3501,3502,3503,3504
 3505,3506,3507,3508,3509,3510,3511,3512,3513,3514,3515,3516,3517,3518,3519,3520
 3521,3522,3523,3524,3525,3526,3527,3528,3529,3530,3531,3532,3533,3534,3535,3536
 3537,3538,3539,3540,3541,3542,3543,3544,3545,3546,3547,3548,3549,3550,3551,3552
 3553,3554,3555,3556,3557,3558,3559,3560,3561,3562,3563,3564,3565,3566,3567,3568
 3569,3570,3571,3572,3573,3574,3575,3576,3577,3578,3579,3580,3581,3582,3583,3584
 3585,3586,3587,3588,3589,3590,3591,3592,3593,3594,3595,3596,3597,3598,3599,3600
 3601,3602,3603,3604,3605,3606,3607,3608,3609,3610,3611,3612,3613,3614,3615,3616
 3617,3618,3619,3620,3621,3622,3623,3624,3625
*INITIAL CONDITIONS, TYPE=TEMPERATURE
 ALLN, 0.0
*BOUNDARY
 BOTTOM, 1, 2
*STEP
 Confined depth growth via thermal eigenstrain -> interface residual stress
*STATIC
*TEMPERATURE
 ALLN, 1.0
*OUTPUT, FIELD
*NODE OUTPUT
 U
*ELEMENT OUTPUT, POSITION=CENTROID
 S, COORD
*END STEP
