*HEADING
 Implant-thread biofilm eigenstrain deck: cond=DH profile=flat amp=0.000 (CPE4, no UMAT)
*NODE
 1, 0.000000, 0.000000
 2, 0.041667, 0.000000
 3, 0.083333, 0.000000
 4, 0.125000, 0.000000
 5, 0.166667, 0.000000
 6, 0.208333, 0.000000
 7, 0.250000, 0.000000
 8, 0.291667, 0.000000
 9, 0.333333, 0.000000
 10, 0.375000, 0.000000
 11, 0.416667, 0.000000
 12, 0.458333, 0.000000
 13, 0.500000, 0.000000
 14, 0.541667, 0.000000
 15, 0.583333, 0.000000
 16, 0.625000, 0.000000
 17, 0.666667, 0.000000
 18, 0.708333, 0.000000
 19, 0.750000, 0.000000
 20, 0.791667, 0.000000
 21, 0.833333, 0.000000
 22, 0.875000, 0.000000
 23, 0.916667, 0.000000
 24, 0.958333, 0.000000
 25, 1.000000, 0.000000
 26, 1.041667, 0.000000
 27, 1.083333, 0.000000
 28, 1.125000, 0.000000
 29, 1.166667, 0.000000
 30, 1.208333, 0.000000
 31, 1.250000, 0.000000
 32, 1.291667, 0.000000
 33, 1.333333, 0.000000
 34, 1.375000, 0.000000
 35, 1.416667, 0.000000
 36, 1.458333, 0.000000
 37, 1.500000, 0.000000
 38, 1.541667, 0.000000
 39, 1.583333, 0.000000
 40, 1.625000, 0.000000
 41, 1.666667, 0.000000
 42, 1.708333, 0.000000
 43, 1.750000, 0.000000
 44, 1.791667, 0.000000
 45, 1.833333, 0.000000
 46, 1.875000, 0.000000
 47, 1.916667, 0.000000
 48, 1.958333, 0.000000
 49, 2.000000, 0.000000
 50, 2.041667, 0.000000
 51, 2.083333, 0.000000
 52, 2.125000, 0.000000
 53, 2.166667, 0.000000
 54, 2.208333, 0.000000
 55, 2.250000, 0.000000
 56, 2.291667, 0.000000
 57, 2.333333, 0.000000
 58, 2.375000, 0.000000
 59, 2.416667, 0.000000
 60, 2.458333, 0.000000
 61, 2.500000, 0.000000
 62, 2.541667, 0.000000
 63, 2.583333, 0.000000
 64, 2.625000, 0.000000
 65, 2.666667, 0.000000
 66, 2.708333, 0.000000
 67, 2.750000, 0.000000
 68, 2.791667, 0.000000
 69, 2.833333, 0.000000
 70, 2.875000, 0.000000
 71, 2.916667, 0.000000
 72, 2.958333, 0.000000
 73, 3.000000, 0.000000
 74, 0.000000, 0.083333
 75, 0.041667, 0.083333
 76, 0.083333, 0.083333
 77, 0.125000, 0.083333
 78, 0.166667, 0.083333
 79, 0.208333, 0.083333
 80, 0.250000, 0.083333
 81, 0.291667, 0.083333
 82, 0.333333, 0.083333
 83, 0.375000, 0.083333
 84, 0.416667, 0.083333
 85, 0.458333, 0.083333
 86, 0.500000, 0.083333
 87, 0.541667, 0.083333
 88, 0.583333, 0.083333
 89, 0.625000, 0.083333
 90, 0.666667, 0.083333
 91, 0.708333, 0.083333
 92, 0.750000, 0.083333
 93, 0.791667, 0.083333
 94, 0.833333, 0.083333
 95, 0.875000, 0.083333
 96, 0.916667, 0.083333
 97, 0.958333, 0.083333
 98, 1.000000, 0.083333
 99, 1.041667, 0.083333
 100, 1.083333, 0.083333
 101, 1.125000, 0.083333
 102, 1.166667, 0.083333
 103, 1.208333, 0.083333
 104, 1.250000, 0.083333
 105, 1.291667, 0.083333
 106, 1.333333, 0.083333
 107, 1.375000, 0.083333
 108, 1.416667, 0.083333
 109, 1.458333, 0.083333
 110, 1.500000, 0.083333
 111, 1.541667, 0.083333
 112, 1.583333, 0.083333
 113, 1.625000, 0.083333
 114, 1.666667, 0.083333
 115, 1.708333, 0.083333
 116, 1.750000, 0.083333
 117, 1.791667, 0.083333
 118, 1.833333, 0.083333
 119, 1.875000, 0.083333
 120, 1.916667, 0.083333
 121, 1.958333, 0.083333
 122, 2.000000, 0.083333
 123, 2.041667, 0.083333
 124, 2.083333, 0.083333
 125, 2.125000, 0.083333
 126, 2.166667, 0.083333
 127, 2.208333, 0.083333
 128, 2.250000, 0.083333
 129, 2.291667, 0.083333
 130, 2.333333, 0.083333
 131, 2.375000, 0.083333
 132, 2.416667, 0.083333
 133, 2.458333, 0.083333
 134, 2.500000, 0.083333
 135, 2.541667, 0.083333
 136, 2.583333, 0.083333
 137, 2.625000, 0.083333
 138, 2.666667, 0.083333
 139, 2.708333, 0.083333
 140, 2.750000, 0.083333
 141, 2.791667, 0.083333
 142, 2.833333, 0.083333
 143, 2.875000, 0.083333
 144, 2.916667, 0.083333
 145, 2.958333, 0.083333
 146, 3.000000, 0.083333
 147, 0.000000, 0.166667
 148, 0.041667, 0.166667
 149, 0.083333, 0.166667
 150, 0.125000, 0.166667
 151, 0.166667, 0.166667
 152, 0.208333, 0.166667
 153, 0.250000, 0.166667
 154, 0.291667, 0.166667
 155, 0.333333, 0.166667
 156, 0.375000, 0.166667
 157, 0.416667, 0.166667
 158, 0.458333, 0.166667
 159, 0.500000, 0.166667
 160, 0.541667, 0.166667
 161, 0.583333, 0.166667
 162, 0.625000, 0.166667
 163, 0.666667, 0.166667
 164, 0.708333, 0.166667
 165, 0.750000, 0.166667
 166, 0.791667, 0.166667
 167, 0.833333, 0.166667
 168, 0.875000, 0.166667
 169, 0.916667, 0.166667
 170, 0.958333, 0.166667
 171, 1.000000, 0.166667
 172, 1.041667, 0.166667
 173, 1.083333, 0.166667
 174, 1.125000, 0.166667
 175, 1.166667, 0.166667
 176, 1.208333, 0.166667
 177, 1.250000, 0.166667
 178, 1.291667, 0.166667
 179, 1.333333, 0.166667
 180, 1.375000, 0.166667
 181, 1.416667, 0.166667
 182, 1.458333, 0.166667
 183, 1.500000, 0.166667
 184, 1.541667, 0.166667
 185, 1.583333, 0.166667
 186, 1.625000, 0.166667
 187, 1.666667, 0.166667
 188, 1.708333, 0.166667
 189, 1.750000, 0.166667
 190, 1.791667, 0.166667
 191, 1.833333, 0.166667
 192, 1.875000, 0.166667
 193, 1.916667, 0.166667
 194, 1.958333, 0.166667
 195, 2.000000, 0.166667
 196, 2.041667, 0.166667
 197, 2.083333, 0.166667
 198, 2.125000, 0.166667
 199, 2.166667, 0.166667
 200, 2.208333, 0.166667
 201, 2.250000, 0.166667
 202, 2.291667, 0.166667
 203, 2.333333, 0.166667
 204, 2.375000, 0.166667
 205, 2.416667, 0.166667
 206, 2.458333, 0.166667
 207, 2.500000, 0.166667
 208, 2.541667, 0.166667
 209, 2.583333, 0.166667
 210, 2.625000, 0.166667
 211, 2.666667, 0.166667
 212, 2.708333, 0.166667
 213, 2.750000, 0.166667
 214, 2.791667, 0.166667
 215, 2.833333, 0.166667
 216, 2.875000, 0.166667
 217, 2.916667, 0.166667
 218, 2.958333, 0.166667
 219, 3.000000, 0.166667
 220, 0.000000, 0.250000
 221, 0.041667, 0.250000
 222, 0.083333, 0.250000
 223, 0.125000, 0.250000
 224, 0.166667, 0.250000
 225, 0.208333, 0.250000
 226, 0.250000, 0.250000
 227, 0.291667, 0.250000
 228, 0.333333, 0.250000
 229, 0.375000, 0.250000
 230, 0.416667, 0.250000
 231, 0.458333, 0.250000
 232, 0.500000, 0.250000
 233, 0.541667, 0.250000
 234, 0.583333, 0.250000
 235, 0.625000, 0.250000
 236, 0.666667, 0.250000
 237, 0.708333, 0.250000
 238, 0.750000, 0.250000
 239, 0.791667, 0.250000
 240, 0.833333, 0.250000
 241, 0.875000, 0.250000
 242, 0.916667, 0.250000
 243, 0.958333, 0.250000
 244, 1.000000, 0.250000
 245, 1.041667, 0.250000
 246, 1.083333, 0.250000
 247, 1.125000, 0.250000
 248, 1.166667, 0.250000
 249, 1.208333, 0.250000
 250, 1.250000, 0.250000
 251, 1.291667, 0.250000
 252, 1.333333, 0.250000
 253, 1.375000, 0.250000
 254, 1.416667, 0.250000
 255, 1.458333, 0.250000
 256, 1.500000, 0.250000
 257, 1.541667, 0.250000
 258, 1.583333, 0.250000
 259, 1.625000, 0.250000
 260, 1.666667, 0.250000
 261, 1.708333, 0.250000
 262, 1.750000, 0.250000
 263, 1.791667, 0.250000
 264, 1.833333, 0.250000
 265, 1.875000, 0.250000
 266, 1.916667, 0.250000
 267, 1.958333, 0.250000
 268, 2.000000, 0.250000
 269, 2.041667, 0.250000
 270, 2.083333, 0.250000
 271, 2.125000, 0.250000
 272, 2.166667, 0.250000
 273, 2.208333, 0.250000
 274, 2.250000, 0.250000
 275, 2.291667, 0.250000
 276, 2.333333, 0.250000
 277, 2.375000, 0.250000
 278, 2.416667, 0.250000
 279, 2.458333, 0.250000
 280, 2.500000, 0.250000
 281, 2.541667, 0.250000
 282, 2.583333, 0.250000
 283, 2.625000, 0.250000
 284, 2.666667, 0.250000
 285, 2.708333, 0.250000
 286, 2.750000, 0.250000
 287, 2.791667, 0.250000
 288, 2.833333, 0.250000
 289, 2.875000, 0.250000
 290, 2.916667, 0.250000
 291, 2.958333, 0.250000
 292, 3.000000, 0.250000
 293, 0.000000, 0.333333
 294, 0.041667, 0.333333
 295, 0.083333, 0.333333
 296, 0.125000, 0.333333
 297, 0.166667, 0.333333
 298, 0.208333, 0.333333
 299, 0.250000, 0.333333
 300, 0.291667, 0.333333
 301, 0.333333, 0.333333
 302, 0.375000, 0.333333
 303, 0.416667, 0.333333
 304, 0.458333, 0.333333
 305, 0.500000, 0.333333
 306, 0.541667, 0.333333
 307, 0.583333, 0.333333
 308, 0.625000, 0.333333
 309, 0.666667, 0.333333
 310, 0.708333, 0.333333
 311, 0.750000, 0.333333
 312, 0.791667, 0.333333
 313, 0.833333, 0.333333
 314, 0.875000, 0.333333
 315, 0.916667, 0.333333
 316, 0.958333, 0.333333
 317, 1.000000, 0.333333
 318, 1.041667, 0.333333
 319, 1.083333, 0.333333
 320, 1.125000, 0.333333
 321, 1.166667, 0.333333
 322, 1.208333, 0.333333
 323, 1.250000, 0.333333
 324, 1.291667, 0.333333
 325, 1.333333, 0.333333
 326, 1.375000, 0.333333
 327, 1.416667, 0.333333
 328, 1.458333, 0.333333
 329, 1.500000, 0.333333
 330, 1.541667, 0.333333
 331, 1.583333, 0.333333
 332, 1.625000, 0.333333
 333, 1.666667, 0.333333
 334, 1.708333, 0.333333
 335, 1.750000, 0.333333
 336, 1.791667, 0.333333
 337, 1.833333, 0.333333
 338, 1.875000, 0.333333
 339, 1.916667, 0.333333
 340, 1.958333, 0.333333
 341, 2.000000, 0.333333
 342, 2.041667, 0.333333
 343, 2.083333, 0.333333
 344, 2.125000, 0.333333
 345, 2.166667, 0.333333
 346, 2.208333, 0.333333
 347, 2.250000, 0.333333
 348, 2.291667, 0.333333
 349, 2.333333, 0.333333
 350, 2.375000, 0.333333
 351, 2.416667, 0.333333
 352, 2.458333, 0.333333
 353, 2.500000, 0.333333
 354, 2.541667, 0.333333
 355, 2.583333, 0.333333
 356, 2.625000, 0.333333
 357, 2.666667, 0.333333
 358, 2.708333, 0.333333
 359, 2.750000, 0.333333
 360, 2.791667, 0.333333
 361, 2.833333, 0.333333
 362, 2.875000, 0.333333
 363, 2.916667, 0.333333
 364, 2.958333, 0.333333
 365, 3.000000, 0.333333
 366, 0.000000, 0.416667
 367, 0.041667, 0.416667
 368, 0.083333, 0.416667
 369, 0.125000, 0.416667
 370, 0.166667, 0.416667
 371, 0.208333, 0.416667
 372, 0.250000, 0.416667
 373, 0.291667, 0.416667
 374, 0.333333, 0.416667
 375, 0.375000, 0.416667
 376, 0.416667, 0.416667
 377, 0.458333, 0.416667
 378, 0.500000, 0.416667
 379, 0.541667, 0.416667
 380, 0.583333, 0.416667
 381, 0.625000, 0.416667
 382, 0.666667, 0.416667
 383, 0.708333, 0.416667
 384, 0.750000, 0.416667
 385, 0.791667, 0.416667
 386, 0.833333, 0.416667
 387, 0.875000, 0.416667
 388, 0.916667, 0.416667
 389, 0.958333, 0.416667
 390, 1.000000, 0.416667
 391, 1.041667, 0.416667
 392, 1.083333, 0.416667
 393, 1.125000, 0.416667
 394, 1.166667, 0.416667
 395, 1.208333, 0.416667
 396, 1.250000, 0.416667
 397, 1.291667, 0.416667
 398, 1.333333, 0.416667
 399, 1.375000, 0.416667
 400, 1.416667, 0.416667
 401, 1.458333, 0.416667
 402, 1.500000, 0.416667
 403, 1.541667, 0.416667
 404, 1.583333, 0.416667
 405, 1.625000, 0.416667
 406, 1.666667, 0.416667
 407, 1.708333, 0.416667
 408, 1.750000, 0.416667
 409, 1.791667, 0.416667
 410, 1.833333, 0.416667
 411, 1.875000, 0.416667
 412, 1.916667, 0.416667
 413, 1.958333, 0.416667
 414, 2.000000, 0.416667
 415, 2.041667, 0.416667
 416, 2.083333, 0.416667
 417, 2.125000, 0.416667
 418, 2.166667, 0.416667
 419, 2.208333, 0.416667
 420, 2.250000, 0.416667
 421, 2.291667, 0.416667
 422, 2.333333, 0.416667
 423, 2.375000, 0.416667
 424, 2.416667, 0.416667
 425, 2.458333, 0.416667
 426, 2.500000, 0.416667
 427, 2.541667, 0.416667
 428, 2.583333, 0.416667
 429, 2.625000, 0.416667
 430, 2.666667, 0.416667
 431, 2.708333, 0.416667
 432, 2.750000, 0.416667
 433, 2.791667, 0.416667
 434, 2.833333, 0.416667
 435, 2.875000, 0.416667
 436, 2.916667, 0.416667
 437, 2.958333, 0.416667
 438, 3.000000, 0.416667
 439, 0.000000, 0.500000
 440, 0.041667, 0.500000
 441, 0.083333, 0.500000
 442, 0.125000, 0.500000
 443, 0.166667, 0.500000
 444, 0.208333, 0.500000
 445, 0.250000, 0.500000
 446, 0.291667, 0.500000
 447, 0.333333, 0.500000
 448, 0.375000, 0.500000
 449, 0.416667, 0.500000
 450, 0.458333, 0.500000
 451, 0.500000, 0.500000
 452, 0.541667, 0.500000
 453, 0.583333, 0.500000
 454, 0.625000, 0.500000
 455, 0.666667, 0.500000
 456, 0.708333, 0.500000
 457, 0.750000, 0.500000
 458, 0.791667, 0.500000
 459, 0.833333, 0.500000
 460, 0.875000, 0.500000
 461, 0.916667, 0.500000
 462, 0.958333, 0.500000
 463, 1.000000, 0.500000
 464, 1.041667, 0.500000
 465, 1.083333, 0.500000
 466, 1.125000, 0.500000
 467, 1.166667, 0.500000
 468, 1.208333, 0.500000
 469, 1.250000, 0.500000
 470, 1.291667, 0.500000
 471, 1.333333, 0.500000
 472, 1.375000, 0.500000
 473, 1.416667, 0.500000
 474, 1.458333, 0.500000
 475, 1.500000, 0.500000
 476, 1.541667, 0.500000
 477, 1.583333, 0.500000
 478, 1.625000, 0.500000
 479, 1.666667, 0.500000
 480, 1.708333, 0.500000
 481, 1.750000, 0.500000
 482, 1.791667, 0.500000
 483, 1.833333, 0.500000
 484, 1.875000, 0.500000
 485, 1.916667, 0.500000
 486, 1.958333, 0.500000
 487, 2.000000, 0.500000
 488, 2.041667, 0.500000
 489, 2.083333, 0.500000
 490, 2.125000, 0.500000
 491, 2.166667, 0.500000
 492, 2.208333, 0.500000
 493, 2.250000, 0.500000
 494, 2.291667, 0.500000
 495, 2.333333, 0.500000
 496, 2.375000, 0.500000
 497, 2.416667, 0.500000
 498, 2.458333, 0.500000
 499, 2.500000, 0.500000
 500, 2.541667, 0.500000
 501, 2.583333, 0.500000
 502, 2.625000, 0.500000
 503, 2.666667, 0.500000
 504, 2.708333, 0.500000
 505, 2.750000, 0.500000
 506, 2.791667, 0.500000
 507, 2.833333, 0.500000
 508, 2.875000, 0.500000
 509, 2.916667, 0.500000
 510, 2.958333, 0.500000
 511, 3.000000, 0.500000
 512, 0.000000, 0.583333
 513, 0.041667, 0.583333
 514, 0.083333, 0.583333
 515, 0.125000, 0.583333
 516, 0.166667, 0.583333
 517, 0.208333, 0.583333
 518, 0.250000, 0.583333
 519, 0.291667, 0.583333
 520, 0.333333, 0.583333
 521, 0.375000, 0.583333
 522, 0.416667, 0.583333
 523, 0.458333, 0.583333
 524, 0.500000, 0.583333
 525, 0.541667, 0.583333
 526, 0.583333, 0.583333
 527, 0.625000, 0.583333
 528, 0.666667, 0.583333
 529, 0.708333, 0.583333
 530, 0.750000, 0.583333
 531, 0.791667, 0.583333
 532, 0.833333, 0.583333
 533, 0.875000, 0.583333
 534, 0.916667, 0.583333
 535, 0.958333, 0.583333
 536, 1.000000, 0.583333
 537, 1.041667, 0.583333
 538, 1.083333, 0.583333
 539, 1.125000, 0.583333
 540, 1.166667, 0.583333
 541, 1.208333, 0.583333
 542, 1.250000, 0.583333
 543, 1.291667, 0.583333
 544, 1.333333, 0.583333
 545, 1.375000, 0.583333
 546, 1.416667, 0.583333
 547, 1.458333, 0.583333
 548, 1.500000, 0.583333
 549, 1.541667, 0.583333
 550, 1.583333, 0.583333
 551, 1.625000, 0.583333
 552, 1.666667, 0.583333
 553, 1.708333, 0.583333
 554, 1.750000, 0.583333
 555, 1.791667, 0.583333
 556, 1.833333, 0.583333
 557, 1.875000, 0.583333
 558, 1.916667, 0.583333
 559, 1.958333, 0.583333
 560, 2.000000, 0.583333
 561, 2.041667, 0.583333
 562, 2.083333, 0.583333
 563, 2.125000, 0.583333
 564, 2.166667, 0.583333
 565, 2.208333, 0.583333
 566, 2.250000, 0.583333
 567, 2.291667, 0.583333
 568, 2.333333, 0.583333
 569, 2.375000, 0.583333
 570, 2.416667, 0.583333
 571, 2.458333, 0.583333
 572, 2.500000, 0.583333
 573, 2.541667, 0.583333
 574, 2.583333, 0.583333
 575, 2.625000, 0.583333
 576, 2.666667, 0.583333
 577, 2.708333, 0.583333
 578, 2.750000, 0.583333
 579, 2.791667, 0.583333
 580, 2.833333, 0.583333
 581, 2.875000, 0.583333
 582, 2.916667, 0.583333
 583, 2.958333, 0.583333
 584, 3.000000, 0.583333
 585, 0.000000, 0.666667
 586, 0.041667, 0.666667
 587, 0.083333, 0.666667
 588, 0.125000, 0.666667
 589, 0.166667, 0.666667
 590, 0.208333, 0.666667
 591, 0.250000, 0.666667
 592, 0.291667, 0.666667
 593, 0.333333, 0.666667
 594, 0.375000, 0.666667
 595, 0.416667, 0.666667
 596, 0.458333, 0.666667
 597, 0.500000, 0.666667
 598, 0.541667, 0.666667
 599, 0.583333, 0.666667
 600, 0.625000, 0.666667
 601, 0.666667, 0.666667
 602, 0.708333, 0.666667
 603, 0.750000, 0.666667
 604, 0.791667, 0.666667
 605, 0.833333, 0.666667
 606, 0.875000, 0.666667
 607, 0.916667, 0.666667
 608, 0.958333, 0.666667
 609, 1.000000, 0.666667
 610, 1.041667, 0.666667
 611, 1.083333, 0.666667
 612, 1.125000, 0.666667
 613, 1.166667, 0.666667
 614, 1.208333, 0.666667
 615, 1.250000, 0.666667
 616, 1.291667, 0.666667
 617, 1.333333, 0.666667
 618, 1.375000, 0.666667
 619, 1.416667, 0.666667
 620, 1.458333, 0.666667
 621, 1.500000, 0.666667
 622, 1.541667, 0.666667
 623, 1.583333, 0.666667
 624, 1.625000, 0.666667
 625, 1.666667, 0.666667
 626, 1.708333, 0.666667
 627, 1.750000, 0.666667
 628, 1.791667, 0.666667
 629, 1.833333, 0.666667
 630, 1.875000, 0.666667
 631, 1.916667, 0.666667
 632, 1.958333, 0.666667
 633, 2.000000, 0.666667
 634, 2.041667, 0.666667
 635, 2.083333, 0.666667
 636, 2.125000, 0.666667
 637, 2.166667, 0.666667
 638, 2.208333, 0.666667
 639, 2.250000, 0.666667
 640, 2.291667, 0.666667
 641, 2.333333, 0.666667
 642, 2.375000, 0.666667
 643, 2.416667, 0.666667
 644, 2.458333, 0.666667
 645, 2.500000, 0.666667
 646, 2.541667, 0.666667
 647, 2.583333, 0.666667
 648, 2.625000, 0.666667
 649, 2.666667, 0.666667
 650, 2.708333, 0.666667
 651, 2.750000, 0.666667
 652, 2.791667, 0.666667
 653, 2.833333, 0.666667
 654, 2.875000, 0.666667
 655, 2.916667, 0.666667
 656, 2.958333, 0.666667
 657, 3.000000, 0.666667
 658, 0.000000, 0.750000
 659, 0.041667, 0.750000
 660, 0.083333, 0.750000
 661, 0.125000, 0.750000
 662, 0.166667, 0.750000
 663, 0.208333, 0.750000
 664, 0.250000, 0.750000
 665, 0.291667, 0.750000
 666, 0.333333, 0.750000
 667, 0.375000, 0.750000
 668, 0.416667, 0.750000
 669, 0.458333, 0.750000
 670, 0.500000, 0.750000
 671, 0.541667, 0.750000
 672, 0.583333, 0.750000
 673, 0.625000, 0.750000
 674, 0.666667, 0.750000
 675, 0.708333, 0.750000
 676, 0.750000, 0.750000
 677, 0.791667, 0.750000
 678, 0.833333, 0.750000
 679, 0.875000, 0.750000
 680, 0.916667, 0.750000
 681, 0.958333, 0.750000
 682, 1.000000, 0.750000
 683, 1.041667, 0.750000
 684, 1.083333, 0.750000
 685, 1.125000, 0.750000
 686, 1.166667, 0.750000
 687, 1.208333, 0.750000
 688, 1.250000, 0.750000
 689, 1.291667, 0.750000
 690, 1.333333, 0.750000
 691, 1.375000, 0.750000
 692, 1.416667, 0.750000
 693, 1.458333, 0.750000
 694, 1.500000, 0.750000
 695, 1.541667, 0.750000
 696, 1.583333, 0.750000
 697, 1.625000, 0.750000
 698, 1.666667, 0.750000
 699, 1.708333, 0.750000
 700, 1.750000, 0.750000
 701, 1.791667, 0.750000
 702, 1.833333, 0.750000
 703, 1.875000, 0.750000
 704, 1.916667, 0.750000
 705, 1.958333, 0.750000
 706, 2.000000, 0.750000
 707, 2.041667, 0.750000
 708, 2.083333, 0.750000
 709, 2.125000, 0.750000
 710, 2.166667, 0.750000
 711, 2.208333, 0.750000
 712, 2.250000, 0.750000
 713, 2.291667, 0.750000
 714, 2.333333, 0.750000
 715, 2.375000, 0.750000
 716, 2.416667, 0.750000
 717, 2.458333, 0.750000
 718, 2.500000, 0.750000
 719, 2.541667, 0.750000
 720, 2.583333, 0.750000
 721, 2.625000, 0.750000
 722, 2.666667, 0.750000
 723, 2.708333, 0.750000
 724, 2.750000, 0.750000
 725, 2.791667, 0.750000
 726, 2.833333, 0.750000
 727, 2.875000, 0.750000
 728, 2.916667, 0.750000
 729, 2.958333, 0.750000
 730, 3.000000, 0.750000
 731, 0.000000, 0.833333
 732, 0.041667, 0.833333
 733, 0.083333, 0.833333
 734, 0.125000, 0.833333
 735, 0.166667, 0.833333
 736, 0.208333, 0.833333
 737, 0.250000, 0.833333
 738, 0.291667, 0.833333
 739, 0.333333, 0.833333
 740, 0.375000, 0.833333
 741, 0.416667, 0.833333
 742, 0.458333, 0.833333
 743, 0.500000, 0.833333
 744, 0.541667, 0.833333
 745, 0.583333, 0.833333
 746, 0.625000, 0.833333
 747, 0.666667, 0.833333
 748, 0.708333, 0.833333
 749, 0.750000, 0.833333
 750, 0.791667, 0.833333
 751, 0.833333, 0.833333
 752, 0.875000, 0.833333
 753, 0.916667, 0.833333
 754, 0.958333, 0.833333
 755, 1.000000, 0.833333
 756, 1.041667, 0.833333
 757, 1.083333, 0.833333
 758, 1.125000, 0.833333
 759, 1.166667, 0.833333
 760, 1.208333, 0.833333
 761, 1.250000, 0.833333
 762, 1.291667, 0.833333
 763, 1.333333, 0.833333
 764, 1.375000, 0.833333
 765, 1.416667, 0.833333
 766, 1.458333, 0.833333
 767, 1.500000, 0.833333
 768, 1.541667, 0.833333
 769, 1.583333, 0.833333
 770, 1.625000, 0.833333
 771, 1.666667, 0.833333
 772, 1.708333, 0.833333
 773, 1.750000, 0.833333
 774, 1.791667, 0.833333
 775, 1.833333, 0.833333
 776, 1.875000, 0.833333
 777, 1.916667, 0.833333
 778, 1.958333, 0.833333
 779, 2.000000, 0.833333
 780, 2.041667, 0.833333
 781, 2.083333, 0.833333
 782, 2.125000, 0.833333
 783, 2.166667, 0.833333
 784, 2.208333, 0.833333
 785, 2.250000, 0.833333
 786, 2.291667, 0.833333
 787, 2.333333, 0.833333
 788, 2.375000, 0.833333
 789, 2.416667, 0.833333
 790, 2.458333, 0.833333
 791, 2.500000, 0.833333
 792, 2.541667, 0.833333
 793, 2.583333, 0.833333
 794, 2.625000, 0.833333
 795, 2.666667, 0.833333
 796, 2.708333, 0.833333
 797, 2.750000, 0.833333
 798, 2.791667, 0.833333
 799, 2.833333, 0.833333
 800, 2.875000, 0.833333
 801, 2.916667, 0.833333
 802, 2.958333, 0.833333
 803, 3.000000, 0.833333
 804, 0.000000, 0.916667
 805, 0.041667, 0.916667
 806, 0.083333, 0.916667
 807, 0.125000, 0.916667
 808, 0.166667, 0.916667
 809, 0.208333, 0.916667
 810, 0.250000, 0.916667
 811, 0.291667, 0.916667
 812, 0.333333, 0.916667
 813, 0.375000, 0.916667
 814, 0.416667, 0.916667
 815, 0.458333, 0.916667
 816, 0.500000, 0.916667
 817, 0.541667, 0.916667
 818, 0.583333, 0.916667
 819, 0.625000, 0.916667
 820, 0.666667, 0.916667
 821, 0.708333, 0.916667
 822, 0.750000, 0.916667
 823, 0.791667, 0.916667
 824, 0.833333, 0.916667
 825, 0.875000, 0.916667
 826, 0.916667, 0.916667
 827, 0.958333, 0.916667
 828, 1.000000, 0.916667
 829, 1.041667, 0.916667
 830, 1.083333, 0.916667
 831, 1.125000, 0.916667
 832, 1.166667, 0.916667
 833, 1.208333, 0.916667
 834, 1.250000, 0.916667
 835, 1.291667, 0.916667
 836, 1.333333, 0.916667
 837, 1.375000, 0.916667
 838, 1.416667, 0.916667
 839, 1.458333, 0.916667
 840, 1.500000, 0.916667
 841, 1.541667, 0.916667
 842, 1.583333, 0.916667
 843, 1.625000, 0.916667
 844, 1.666667, 0.916667
 845, 1.708333, 0.916667
 846, 1.750000, 0.916667
 847, 1.791667, 0.916667
 848, 1.833333, 0.916667
 849, 1.875000, 0.916667
 850, 1.916667, 0.916667
 851, 1.958333, 0.916667
 852, 2.000000, 0.916667
 853, 2.041667, 0.916667
 854, 2.083333, 0.916667
 855, 2.125000, 0.916667
 856, 2.166667, 0.916667
 857, 2.208333, 0.916667
 858, 2.250000, 0.916667
 859, 2.291667, 0.916667
 860, 2.333333, 0.916667
 861, 2.375000, 0.916667
 862, 2.416667, 0.916667
 863, 2.458333, 0.916667
 864, 2.500000, 0.916667
 865, 2.541667, 0.916667
 866, 2.583333, 0.916667
 867, 2.625000, 0.916667
 868, 2.666667, 0.916667
 869, 2.708333, 0.916667
 870, 2.750000, 0.916667
 871, 2.791667, 0.916667
 872, 2.833333, 0.916667
 873, 2.875000, 0.916667
 874, 2.916667, 0.916667
 875, 2.958333, 0.916667
 876, 3.000000, 0.916667
 877, 0.000000, 1.000000
 878, 0.041667, 1.000000
 879, 0.083333, 1.000000
 880, 0.125000, 1.000000
 881, 0.166667, 1.000000
 882, 0.208333, 1.000000
 883, 0.250000, 1.000000
 884, 0.291667, 1.000000
 885, 0.333333, 1.000000
 886, 0.375000, 1.000000
 887, 0.416667, 1.000000
 888, 0.458333, 1.000000
 889, 0.500000, 1.000000
 890, 0.541667, 1.000000
 891, 0.583333, 1.000000
 892, 0.625000, 1.000000
 893, 0.666667, 1.000000
 894, 0.708333, 1.000000
 895, 0.750000, 1.000000
 896, 0.791667, 1.000000
 897, 0.833333, 1.000000
 898, 0.875000, 1.000000
 899, 0.916667, 1.000000
 900, 0.958333, 1.000000
 901, 1.000000, 1.000000
 902, 1.041667, 1.000000
 903, 1.083333, 1.000000
 904, 1.125000, 1.000000
 905, 1.166667, 1.000000
 906, 1.208333, 1.000000
 907, 1.250000, 1.000000
 908, 1.291667, 1.000000
 909, 1.333333, 1.000000
 910, 1.375000, 1.000000
 911, 1.416667, 1.000000
 912, 1.458333, 1.000000
 913, 1.500000, 1.000000
 914, 1.541667, 1.000000
 915, 1.583333, 1.000000
 916, 1.625000, 1.000000
 917, 1.666667, 1.000000
 918, 1.708333, 1.000000
 919, 1.750000, 1.000000
 920, 1.791667, 1.000000
 921, 1.833333, 1.000000
 922, 1.875000, 1.000000
 923, 1.916667, 1.000000
 924, 1.958333, 1.000000
 925, 2.000000, 1.000000
 926, 2.041667, 1.000000
 927, 2.083333, 1.000000
 928, 2.125000, 1.000000
 929, 2.166667, 1.000000
 930, 2.208333, 1.000000
 931, 2.250000, 1.000000
 932, 2.291667, 1.000000
 933, 2.333333, 1.000000
 934, 2.375000, 1.000000
 935, 2.416667, 1.000000
 936, 2.458333, 1.000000
 937, 2.500000, 1.000000
 938, 2.541667, 1.000000
 939, 2.583333, 1.000000
 940, 2.625000, 1.000000
 941, 2.666667, 1.000000
 942, 2.708333, 1.000000
 943, 2.750000, 1.000000
 944, 2.791667, 1.000000
 945, 2.833333, 1.000000
 946, 2.875000, 1.000000
 947, 2.916667, 1.000000
 948, 2.958333, 1.000000
 949, 3.000000, 1.000000
*ELEMENT, TYPE=CPE4
 1, 1, 2, 75, 74
 2, 2, 3, 76, 75
 3, 3, 4, 77, 76
 4, 4, 5, 78, 77
 5, 5, 6, 79, 78
 6, 6, 7, 80, 79
 7, 7, 8, 81, 80
 8, 8, 9, 82, 81
 9, 9, 10, 83, 82
 10, 10, 11, 84, 83
 11, 11, 12, 85, 84
 12, 12, 13, 86, 85
 13, 13, 14, 87, 86
 14, 14, 15, 88, 87
 15, 15, 16, 89, 88
 16, 16, 17, 90, 89
 17, 17, 18, 91, 90
 18, 18, 19, 92, 91
 19, 19, 20, 93, 92
 20, 20, 21, 94, 93
 21, 21, 22, 95, 94
 22, 22, 23, 96, 95
 23, 23, 24, 97, 96
 24, 24, 25, 98, 97
 25, 25, 26, 99, 98
 26, 26, 27, 100, 99
 27, 27, 28, 101, 100
 28, 28, 29, 102, 101
 29, 29, 30, 103, 102
 30, 30, 31, 104, 103
 31, 31, 32, 105, 104
 32, 32, 33, 106, 105
 33, 33, 34, 107, 106
 34, 34, 35, 108, 107
 35, 35, 36, 109, 108
 36, 36, 37, 110, 109
 37, 37, 38, 111, 110
 38, 38, 39, 112, 111
 39, 39, 40, 113, 112
 40, 40, 41, 114, 113
 41, 41, 42, 115, 114
 42, 42, 43, 116, 115
 43, 43, 44, 117, 116
 44, 44, 45, 118, 117
 45, 45, 46, 119, 118
 46, 46, 47, 120, 119
 47, 47, 48, 121, 120
 48, 48, 49, 122, 121
 49, 49, 50, 123, 122
 50, 50, 51, 124, 123
 51, 51, 52, 125, 124
 52, 52, 53, 126, 125
 53, 53, 54, 127, 126
 54, 54, 55, 128, 127
 55, 55, 56, 129, 128
 56, 56, 57, 130, 129
 57, 57, 58, 131, 130
 58, 58, 59, 132, 131
 59, 59, 60, 133, 132
 60, 60, 61, 134, 133
 61, 61, 62, 135, 134
 62, 62, 63, 136, 135
 63, 63, 64, 137, 136
 64, 64, 65, 138, 137
 65, 65, 66, 139, 138
 66, 66, 67, 140, 139
 67, 67, 68, 141, 140
 68, 68, 69, 142, 141
 69, 69, 70, 143, 142
 70, 70, 71, 144, 143
 71, 71, 72, 145, 144
 72, 72, 73, 146, 145
 73, 74, 75, 148, 147
 74, 75, 76, 149, 148
 75, 76, 77, 150, 149
 76, 77, 78, 151, 150
 77, 78, 79, 152, 151
 78, 79, 80, 153, 152
 79, 80, 81, 154, 153
 80, 81, 82, 155, 154
 81, 82, 83, 156, 155
 82, 83, 84, 157, 156
 83, 84, 85, 158, 157
 84, 85, 86, 159, 158
 85, 86, 87, 160, 159
 86, 87, 88, 161, 160
 87, 88, 89, 162, 161
 88, 89, 90, 163, 162
 89, 90, 91, 164, 163
 90, 91, 92, 165, 164
 91, 92, 93, 166, 165
 92, 93, 94, 167, 166
 93, 94, 95, 168, 167
 94, 95, 96, 169, 168
 95, 96, 97, 170, 169
 96, 97, 98, 171, 170
 97, 98, 99, 172, 171
 98, 99, 100, 173, 172
 99, 100, 101, 174, 173
 100, 101, 102, 175, 174
 101, 102, 103, 176, 175
 102, 103, 104, 177, 176
 103, 104, 105, 178, 177
 104, 105, 106, 179, 178
 105, 106, 107, 180, 179
 106, 107, 108, 181, 180
 107, 108, 109, 182, 181
 108, 109, 110, 183, 182
 109, 110, 111, 184, 183
 110, 111, 112, 185, 184
 111, 112, 113, 186, 185
 112, 113, 114, 187, 186
 113, 114, 115, 188, 187
 114, 115, 116, 189, 188
 115, 116, 117, 190, 189
 116, 117, 118, 191, 190
 117, 118, 119, 192, 191
 118, 119, 120, 193, 192
 119, 120, 121, 194, 193
 120, 121, 122, 195, 194
 121, 122, 123, 196, 195
 122, 123, 124, 197, 196
 123, 124, 125, 198, 197
 124, 125, 126, 199, 198
 125, 126, 127, 200, 199
 126, 127, 128, 201, 200
 127, 128, 129, 202, 201
 128, 129, 130, 203, 202
 129, 130, 131, 204, 203
 130, 131, 132, 205, 204
 131, 132, 133, 206, 205
 132, 133, 134, 207, 206
 133, 134, 135, 208, 207
 134, 135, 136, 209, 208
 135, 136, 137, 210, 209
 136, 137, 138, 211, 210
 137, 138, 139, 212, 211
 138, 139, 140, 213, 212
 139, 140, 141, 214, 213
 140, 141, 142, 215, 214
 141, 142, 143, 216, 215
 142, 143, 144, 217, 216
 143, 144, 145, 218, 217
 144, 145, 146, 219, 218
 145, 147, 148, 221, 220
 146, 148, 149, 222, 221
 147, 149, 150, 223, 222
 148, 150, 151, 224, 223
 149, 151, 152, 225, 224
 150, 152, 153, 226, 225
 151, 153, 154, 227, 226
 152, 154, 155, 228, 227
 153, 155, 156, 229, 228
 154, 156, 157, 230, 229
 155, 157, 158, 231, 230
 156, 158, 159, 232, 231
 157, 159, 160, 233, 232
 158, 160, 161, 234, 233
 159, 161, 162, 235, 234
 160, 162, 163, 236, 235
 161, 163, 164, 237, 236
 162, 164, 165, 238, 237
 163, 165, 166, 239, 238
 164, 166, 167, 240, 239
 165, 167, 168, 241, 240
 166, 168, 169, 242, 241
 167, 169, 170, 243, 242
 168, 170, 171, 244, 243
 169, 171, 172, 245, 244
 170, 172, 173, 246, 245
 171, 173, 174, 247, 246
 172, 174, 175, 248, 247
 173, 175, 176, 249, 248
 174, 176, 177, 250, 249
 175, 177, 178, 251, 250
 176, 178, 179, 252, 251
 177, 179, 180, 253, 252
 178, 180, 181, 254, 253
 179, 181, 182, 255, 254
 180, 182, 183, 256, 255
 181, 183, 184, 257, 256
 182, 184, 185, 258, 257
 183, 185, 186, 259, 258
 184, 186, 187, 260, 259
 185, 187, 188, 261, 260
 186, 188, 189, 262, 261
 187, 189, 190, 263, 262
 188, 190, 191, 264, 263
 189, 191, 192, 265, 264
 190, 192, 193, 266, 265
 191, 193, 194, 267, 266
 192, 194, 195, 268, 267
 193, 195, 196, 269, 268
 194, 196, 197, 270, 269
 195, 197, 198, 271, 270
 196, 198, 199, 272, 271
 197, 199, 200, 273, 272
 198, 200, 201, 274, 273
 199, 201, 202, 275, 274
 200, 202, 203, 276, 275
 201, 203, 204, 277, 276
 202, 204, 205, 278, 277
 203, 205, 206, 279, 278
 204, 206, 207, 280, 279
 205, 207, 208, 281, 280
 206, 208, 209, 282, 281
 207, 209, 210, 283, 282
 208, 210, 211, 284, 283
 209, 211, 212, 285, 284
 210, 212, 213, 286, 285
 211, 213, 214, 287, 286
 212, 214, 215, 288, 287
 213, 215, 216, 289, 288
 214, 216, 217, 290, 289
 215, 217, 218, 291, 290
 216, 218, 219, 292, 291
 217, 220, 221, 294, 293
 218, 221, 222, 295, 294
 219, 222, 223, 296, 295
 220, 223, 224, 297, 296
 221, 224, 225, 298, 297
 222, 225, 226, 299, 298
 223, 226, 227, 300, 299
 224, 227, 228, 301, 300
 225, 228, 229, 302, 301
 226, 229, 230, 303, 302
 227, 230, 231, 304, 303
 228, 231, 232, 305, 304
 229, 232, 233, 306, 305
 230, 233, 234, 307, 306
 231, 234, 235, 308, 307
 232, 235, 236, 309, 308
 233, 236, 237, 310, 309
 234, 237, 238, 311, 310
 235, 238, 239, 312, 311
 236, 239, 240, 313, 312
 237, 240, 241, 314, 313
 238, 241, 242, 315, 314
 239, 242, 243, 316, 315
 240, 243, 244, 317, 316
 241, 244, 245, 318, 317
 242, 245, 246, 319, 318
 243, 246, 247, 320, 319
 244, 247, 248, 321, 320
 245, 248, 249, 322, 321
 246, 249, 250, 323, 322
 247, 250, 251, 324, 323
 248, 251, 252, 325, 324
 249, 252, 253, 326, 325
 250, 253, 254, 327, 326
 251, 254, 255, 328, 327
 252, 255, 256, 329, 328
 253, 256, 257, 330, 329
 254, 257, 258, 331, 330
 255, 258, 259, 332, 331
 256, 259, 260, 333, 332
 257, 260, 261, 334, 333
 258, 261, 262, 335, 334
 259, 262, 263, 336, 335
 260, 263, 264, 337, 336
 261, 264, 265, 338, 337
 262, 265, 266, 339, 338
 263, 266, 267, 340, 339
 264, 267, 268, 341, 340
 265, 268, 269, 342, 341
 266, 269, 270, 343, 342
 267, 270, 271, 344, 343
 268, 271, 272, 345, 344
 269, 272, 273, 346, 345
 270, 273, 274, 347, 346
 271, 274, 275, 348, 347
 272, 275, 276, 349, 348
 273, 276, 277, 350, 349
 274, 277, 278, 351, 350
 275, 278, 279, 352, 351
 276, 279, 280, 353, 352
 277, 280, 281, 354, 353
 278, 281, 282, 355, 354
 279, 282, 283, 356, 355
 280, 283, 284, 357, 356
 281, 284, 285, 358, 357
 282, 285, 286, 359, 358
 283, 286, 287, 360, 359
 284, 287, 288, 361, 360
 285, 288, 289, 362, 361
 286, 289, 290, 363, 362
 287, 290, 291, 364, 363
 288, 291, 292, 365, 364
 289, 293, 294, 367, 366
 290, 294, 295, 368, 367
 291, 295, 296, 369, 368
 292, 296, 297, 370, 369
 293, 297, 298, 371, 370
 294, 298, 299, 372, 371
 295, 299, 300, 373, 372
 296, 300, 301, 374, 373
 297, 301, 302, 375, 374
 298, 302, 303, 376, 375
 299, 303, 304, 377, 376
 300, 304, 305, 378, 377
 301, 305, 306, 379, 378
 302, 306, 307, 380, 379
 303, 307, 308, 381, 380
 304, 308, 309, 382, 381
 305, 309, 310, 383, 382
 306, 310, 311, 384, 383
 307, 311, 312, 385, 384
 308, 312, 313, 386, 385
 309, 313, 314, 387, 386
 310, 314, 315, 388, 387
 311, 315, 316, 389, 388
 312, 316, 317, 390, 389
 313, 317, 318, 391, 390
 314, 318, 319, 392, 391
 315, 319, 320, 393, 392
 316, 320, 321, 394, 393
 317, 321, 322, 395, 394
 318, 322, 323, 396, 395
 319, 323, 324, 397, 396
 320, 324, 325, 398, 397
 321, 325, 326, 399, 398
 322, 326, 327, 400, 399
 323, 327, 328, 401, 400
 324, 328, 329, 402, 401
 325, 329, 330, 403, 402
 326, 330, 331, 404, 403
 327, 331, 332, 405, 404
 328, 332, 333, 406, 405
 329, 333, 334, 407, 406
 330, 334, 335, 408, 407
 331, 335, 336, 409, 408
 332, 336, 337, 410, 409
 333, 337, 338, 411, 410
 334, 338, 339, 412, 411
 335, 339, 340, 413, 412
 336, 340, 341, 414, 413
 337, 341, 342, 415, 414
 338, 342, 343, 416, 415
 339, 343, 344, 417, 416
 340, 344, 345, 418, 417
 341, 345, 346, 419, 418
 342, 346, 347, 420, 419
 343, 347, 348, 421, 420
 344, 348, 349, 422, 421
 345, 349, 350, 423, 422
 346, 350, 351, 424, 423
 347, 351, 352, 425, 424
 348, 352, 353, 426, 425
 349, 353, 354, 427, 426
 350, 354, 355, 428, 427
 351, 355, 356, 429, 428
 352, 356, 357, 430, 429
 353, 357, 358, 431, 430
 354, 358, 359, 432, 431
 355, 359, 360, 433, 432
 356, 360, 361, 434, 433
 357, 361, 362, 435, 434
 358, 362, 363, 436, 435
 359, 363, 364, 437, 436
 360, 364, 365, 438, 437
 361, 366, 367, 440, 439
 362, 367, 368, 441, 440
 363, 368, 369, 442, 441
 364, 369, 370, 443, 442
 365, 370, 371, 444, 443
 366, 371, 372, 445, 444
 367, 372, 373, 446, 445
 368, 373, 374, 447, 446
 369, 374, 375, 448, 447
 370, 375, 376, 449, 448
 371, 376, 377, 450, 449
 372, 377, 378, 451, 450
 373, 378, 379, 452, 451
 374, 379, 380, 453, 452
 375, 380, 381, 454, 453
 376, 381, 382, 455, 454
 377, 382, 383, 456, 455
 378, 383, 384, 457, 456
 379, 384, 385, 458, 457
 380, 385, 386, 459, 458
 381, 386, 387, 460, 459
 382, 387, 388, 461, 460
 383, 388, 389, 462, 461
 384, 389, 390, 463, 462
 385, 390, 391, 464, 463
 386, 391, 392, 465, 464
 387, 392, 393, 466, 465
 388, 393, 394, 467, 466
 389, 394, 395, 468, 467
 390, 395, 396, 469, 468
 391, 396, 397, 470, 469
 392, 397, 398, 471, 470
 393, 398, 399, 472, 471
 394, 399, 400, 473, 472
 395, 400, 401, 474, 473
 396, 401, 402, 475, 474
 397, 402, 403, 476, 475
 398, 403, 404, 477, 476
 399, 404, 405, 478, 477
 400, 405, 406, 479, 478
 401, 406, 407, 480, 479
 402, 407, 408, 481, 480
 403, 408, 409, 482, 481
 404, 409, 410, 483, 482
 405, 410, 411, 484, 483
 406, 411, 412, 485, 484
 407, 412, 413, 486, 485
 408, 413, 414, 487, 486
 409, 414, 415, 488, 487
 410, 415, 416, 489, 488
 411, 416, 417, 490, 489
 412, 417, 418, 491, 490
 413, 418, 419, 492, 491
 414, 419, 420, 493, 492
 415, 420, 421, 494, 493
 416, 421, 422, 495, 494
 417, 422, 423, 496, 495
 418, 423, 424, 497, 496
 419, 424, 425, 498, 497
 420, 425, 426, 499, 498
 421, 426, 427, 500, 499
 422, 427, 428, 501, 500
 423, 428, 429, 502, 501
 424, 429, 430, 503, 502
 425, 430, 431, 504, 503
 426, 431, 432, 505, 504
 427, 432, 433, 506, 505
 428, 433, 434, 507, 506
 429, 434, 435, 508, 507
 430, 435, 436, 509, 508
 431, 436, 437, 510, 509
 432, 437, 438, 511, 510
 433, 439, 440, 513, 512
 434, 440, 441, 514, 513
 435, 441, 442, 515, 514
 436, 442, 443, 516, 515
 437, 443, 444, 517, 516
 438, 444, 445, 518, 517
 439, 445, 446, 519, 518
 440, 446, 447, 520, 519
 441, 447, 448, 521, 520
 442, 448, 449, 522, 521
 443, 449, 450, 523, 522
 444, 450, 451, 524, 523
 445, 451, 452, 525, 524
 446, 452, 453, 526, 525
 447, 453, 454, 527, 526
 448, 454, 455, 528, 527
 449, 455, 456, 529, 528
 450, 456, 457, 530, 529
 451, 457, 458, 531, 530
 452, 458, 459, 532, 531
 453, 459, 460, 533, 532
 454, 460, 461, 534, 533
 455, 461, 462, 535, 534
 456, 462, 463, 536, 535
 457, 463, 464, 537, 536
 458, 464, 465, 538, 537
 459, 465, 466, 539, 538
 460, 466, 467, 540, 539
 461, 467, 468, 541, 540
 462, 468, 469, 542, 541
 463, 469, 470, 543, 542
 464, 470, 471, 544, 543
 465, 471, 472, 545, 544
 466, 472, 473, 546, 545
 467, 473, 474, 547, 546
 468, 474, 475, 548, 547
 469, 475, 476, 549, 548
 470, 476, 477, 550, 549
 471, 477, 478, 551, 550
 472, 478, 479, 552, 551
 473, 479, 480, 553, 552
 474, 480, 481, 554, 553
 475, 481, 482, 555, 554
 476, 482, 483, 556, 555
 477, 483, 484, 557, 556
 478, 484, 485, 558, 557
 479, 485, 486, 559, 558
 480, 486, 487, 560, 559
 481, 487, 488, 561, 560
 482, 488, 489, 562, 561
 483, 489, 490, 563, 562
 484, 490, 491, 564, 563
 485, 491, 492, 565, 564
 486, 492, 493, 566, 565
 487, 493, 494, 567, 566
 488, 494, 495, 568, 567
 489, 495, 496, 569, 568
 490, 496, 497, 570, 569
 491, 497, 498, 571, 570
 492, 498, 499, 572, 571
 493, 499, 500, 573, 572
 494, 500, 501, 574, 573
 495, 501, 502, 575, 574
 496, 502, 503, 576, 575
 497, 503, 504, 577, 576
 498, 504, 505, 578, 577
 499, 505, 506, 579, 578
 500, 506, 507, 580, 579
 501, 507, 508, 581, 580
 502, 508, 509, 582, 581
 503, 509, 510, 583, 582
 504, 510, 511, 584, 583
 505, 512, 513, 586, 585
 506, 513, 514, 587, 586
 507, 514, 515, 588, 587
 508, 515, 516, 589, 588
 509, 516, 517, 590, 589
 510, 517, 518, 591, 590
 511, 518, 519, 592, 591
 512, 519, 520, 593, 592
 513, 520, 521, 594, 593
 514, 521, 522, 595, 594
 515, 522, 523, 596, 595
 516, 523, 524, 597, 596
 517, 524, 525, 598, 597
 518, 525, 526, 599, 598
 519, 526, 527, 600, 599
 520, 527, 528, 601, 600
 521, 528, 529, 602, 601
 522, 529, 530, 603, 602
 523, 530, 531, 604, 603
 524, 531, 532, 605, 604
 525, 532, 533, 606, 605
 526, 533, 534, 607, 606
 527, 534, 535, 608, 607
 528, 535, 536, 609, 608
 529, 536, 537, 610, 609
 530, 537, 538, 611, 610
 531, 538, 539, 612, 611
 532, 539, 540, 613, 612
 533, 540, 541, 614, 613
 534, 541, 542, 615, 614
 535, 542, 543, 616, 615
 536, 543, 544, 617, 616
 537, 544, 545, 618, 617
 538, 545, 546, 619, 618
 539, 546, 547, 620, 619
 540, 547, 548, 621, 620
 541, 548, 549, 622, 621
 542, 549, 550, 623, 622
 543, 550, 551, 624, 623
 544, 551, 552, 625, 624
 545, 552, 553, 626, 625
 546, 553, 554, 627, 626
 547, 554, 555, 628, 627
 548, 555, 556, 629, 628
 549, 556, 557, 630, 629
 550, 557, 558, 631, 630
 551, 558, 559, 632, 631
 552, 559, 560, 633, 632
 553, 560, 561, 634, 633
 554, 561, 562, 635, 634
 555, 562, 563, 636, 635
 556, 563, 564, 637, 636
 557, 564, 565, 638, 637
 558, 565, 566, 639, 638
 559, 566, 567, 640, 639
 560, 567, 568, 641, 640
 561, 568, 569, 642, 641
 562, 569, 570, 643, 642
 563, 570, 571, 644, 643
 564, 571, 572, 645, 644
 565, 572, 573, 646, 645
 566, 573, 574, 647, 646
 567, 574, 575, 648, 647
 568, 575, 576, 649, 648
 569, 576, 577, 650, 649
 570, 577, 578, 651, 650
 571, 578, 579, 652, 651
 572, 579, 580, 653, 652
 573, 580, 581, 654, 653
 574, 581, 582, 655, 654
 575, 582, 583, 656, 655
 576, 583, 584, 657, 656
 577, 585, 586, 659, 658
 578, 586, 587, 660, 659
 579, 587, 588, 661, 660
 580, 588, 589, 662, 661
 581, 589, 590, 663, 662
 582, 590, 591, 664, 663
 583, 591, 592, 665, 664
 584, 592, 593, 666, 665
 585, 593, 594, 667, 666
 586, 594, 595, 668, 667
 587, 595, 596, 669, 668
 588, 596, 597, 670, 669
 589, 597, 598, 671, 670
 590, 598, 599, 672, 671
 591, 599, 600, 673, 672
 592, 600, 601, 674, 673
 593, 601, 602, 675, 674
 594, 602, 603, 676, 675
 595, 603, 604, 677, 676
 596, 604, 605, 678, 677
 597, 605, 606, 679, 678
 598, 606, 607, 680, 679
 599, 607, 608, 681, 680
 600, 608, 609, 682, 681
 601, 609, 610, 683, 682
 602, 610, 611, 684, 683
 603, 611, 612, 685, 684
 604, 612, 613, 686, 685
 605, 613, 614, 687, 686
 606, 614, 615, 688, 687
 607, 615, 616, 689, 688
 608, 616, 617, 690, 689
 609, 617, 618, 691, 690
 610, 618, 619, 692, 691
 611, 619, 620, 693, 692
 612, 620, 621, 694, 693
 613, 621, 622, 695, 694
 614, 622, 623, 696, 695
 615, 623, 624, 697, 696
 616, 624, 625, 698, 697
 617, 625, 626, 699, 698
 618, 626, 627, 700, 699
 619, 627, 628, 701, 700
 620, 628, 629, 702, 701
 621, 629, 630, 703, 702
 622, 630, 631, 704, 703
 623, 631, 632, 705, 704
 624, 632, 633, 706, 705
 625, 633, 634, 707, 706
 626, 634, 635, 708, 707
 627, 635, 636, 709, 708
 628, 636, 637, 710, 709
 629, 637, 638, 711, 710
 630, 638, 639, 712, 711
 631, 639, 640, 713, 712
 632, 640, 641, 714, 713
 633, 641, 642, 715, 714
 634, 642, 643, 716, 715
 635, 643, 644, 717, 716
 636, 644, 645, 718, 717
 637, 645, 646, 719, 718
 638, 646, 647, 720, 719
 639, 647, 648, 721, 720
 640, 648, 649, 722, 721
 641, 649, 650, 723, 722
 642, 650, 651, 724, 723
 643, 651, 652, 725, 724
 644, 652, 653, 726, 725
 645, 653, 654, 727, 726
 646, 654, 655, 728, 727
 647, 655, 656, 729, 728
 648, 656, 657, 730, 729
 649, 658, 659, 732, 731
 650, 659, 660, 733, 732
 651, 660, 661, 734, 733
 652, 661, 662, 735, 734
 653, 662, 663, 736, 735
 654, 663, 664, 737, 736
 655, 664, 665, 738, 737
 656, 665, 666, 739, 738
 657, 666, 667, 740, 739
 658, 667, 668, 741, 740
 659, 668, 669, 742, 741
 660, 669, 670, 743, 742
 661, 670, 671, 744, 743
 662, 671, 672, 745, 744
 663, 672, 673, 746, 745
 664, 673, 674, 747, 746
 665, 674, 675, 748, 747
 666, 675, 676, 749, 748
 667, 676, 677, 750, 749
 668, 677, 678, 751, 750
 669, 678, 679, 752, 751
 670, 679, 680, 753, 752
 671, 680, 681, 754, 753
 672, 681, 682, 755, 754
 673, 682, 683, 756, 755
 674, 683, 684, 757, 756
 675, 684, 685, 758, 757
 676, 685, 686, 759, 758
 677, 686, 687, 760, 759
 678, 687, 688, 761, 760
 679, 688, 689, 762, 761
 680, 689, 690, 763, 762
 681, 690, 691, 764, 763
 682, 691, 692, 765, 764
 683, 692, 693, 766, 765
 684, 693, 694, 767, 766
 685, 694, 695, 768, 767
 686, 695, 696, 769, 768
 687, 696, 697, 770, 769
 688, 697, 698, 771, 770
 689, 698, 699, 772, 771
 690, 699, 700, 773, 772
 691, 700, 701, 774, 773
 692, 701, 702, 775, 774
 693, 702, 703, 776, 775
 694, 703, 704, 777, 776
 695, 704, 705, 778, 777
 696, 705, 706, 779, 778
 697, 706, 707, 780, 779
 698, 707, 708, 781, 780
 699, 708, 709, 782, 781
 700, 709, 710, 783, 782
 701, 710, 711, 784, 783
 702, 711, 712, 785, 784
 703, 712, 713, 786, 785
 704, 713, 714, 787, 786
 705, 714, 715, 788, 787
 706, 715, 716, 789, 788
 707, 716, 717, 790, 789
 708, 717, 718, 791, 790
 709, 718, 719, 792, 791
 710, 719, 720, 793, 792
 711, 720, 721, 794, 793
 712, 721, 722, 795, 794
 713, 722, 723, 796, 795
 714, 723, 724, 797, 796
 715, 724, 725, 798, 797
 716, 725, 726, 799, 798
 717, 726, 727, 800, 799
 718, 727, 728, 801, 800
 719, 728, 729, 802, 801
 720, 729, 730, 803, 802
 721, 731, 732, 805, 804
 722, 732, 733, 806, 805
 723, 733, 734, 807, 806
 724, 734, 735, 808, 807
 725, 735, 736, 809, 808
 726, 736, 737, 810, 809
 727, 737, 738, 811, 810
 728, 738, 739, 812, 811
 729, 739, 740, 813, 812
 730, 740, 741, 814, 813
 731, 741, 742, 815, 814
 732, 742, 743, 816, 815
 733, 743, 744, 817, 816
 734, 744, 745, 818, 817
 735, 745, 746, 819, 818
 736, 746, 747, 820, 819
 737, 747, 748, 821, 820
 738, 748, 749, 822, 821
 739, 749, 750, 823, 822
 740, 750, 751, 824, 823
 741, 751, 752, 825, 824
 742, 752, 753, 826, 825
 743, 753, 754, 827, 826
 744, 754, 755, 828, 827
 745, 755, 756, 829, 828
 746, 756, 757, 830, 829
 747, 757, 758, 831, 830
 748, 758, 759, 832, 831
 749, 759, 760, 833, 832
 750, 760, 761, 834, 833
 751, 761, 762, 835, 834
 752, 762, 763, 836, 835
 753, 763, 764, 837, 836
 754, 764, 765, 838, 837
 755, 765, 766, 839, 838
 756, 766, 767, 840, 839
 757, 767, 768, 841, 840
 758, 768, 769, 842, 841
 759, 769, 770, 843, 842
 760, 770, 771, 844, 843
 761, 771, 772, 845, 844
 762, 772, 773, 846, 845
 763, 773, 774, 847, 846
 764, 774, 775, 848, 847
 765, 775, 776, 849, 848
 766, 776, 777, 850, 849
 767, 777, 778, 851, 850
 768, 778, 779, 852, 851
 769, 779, 780, 853, 852
 770, 780, 781, 854, 853
 771, 781, 782, 855, 854
 772, 782, 783, 856, 855
 773, 783, 784, 857, 856
 774, 784, 785, 858, 857
 775, 785, 786, 859, 858
 776, 786, 787, 860, 859
 777, 787, 788, 861, 860
 778, 788, 789, 862, 861
 779, 789, 790, 863, 862
 780, 790, 791, 864, 863
 781, 791, 792, 865, 864
 782, 792, 793, 866, 865
 783, 793, 794, 867, 866
 784, 794, 795, 868, 867
 785, 795, 796, 869, 868
 786, 796, 797, 870, 869
 787, 797, 798, 871, 870
 788, 798, 799, 872, 871
 789, 799, 800, 873, 872
 790, 800, 801, 874, 873
 791, 801, 802, 875, 874
 792, 802, 803, 876, 875
 793, 804, 805, 878, 877
 794, 805, 806, 879, 878
 795, 806, 807, 880, 879
 796, 807, 808, 881, 880
 797, 808, 809, 882, 881
 798, 809, 810, 883, 882
 799, 810, 811, 884, 883
 800, 811, 812, 885, 884
 801, 812, 813, 886, 885
 802, 813, 814, 887, 886
 803, 814, 815, 888, 887
 804, 815, 816, 889, 888
 805, 816, 817, 890, 889
 806, 817, 818, 891, 890
 807, 818, 819, 892, 891
 808, 819, 820, 893, 892
 809, 820, 821, 894, 893
 810, 821, 822, 895, 894
 811, 822, 823, 896, 895
 812, 823, 824, 897, 896
 813, 824, 825, 898, 897
 814, 825, 826, 899, 898
 815, 826, 827, 900, 899
 816, 827, 828, 901, 900
 817, 828, 829, 902, 901
 818, 829, 830, 903, 902
 819, 830, 831, 904, 903
 820, 831, 832, 905, 904
 821, 832, 833, 906, 905
 822, 833, 834, 907, 906
 823, 834, 835, 908, 907
 824, 835, 836, 909, 908
 825, 836, 837, 910, 909
 826, 837, 838, 911, 910
 827, 838, 839, 912, 911
 828, 839, 840, 913, 912
 829, 840, 841, 914, 913
 830, 841, 842, 915, 914
 831, 842, 843, 916, 915
 832, 843, 844, 917, 916
 833, 844, 845, 918, 917
 834, 845, 846, 919, 918
 835, 846, 847, 920, 919
 836, 847, 848, 921, 920
 837, 848, 849, 922, 921
 838, 849, 850, 923, 922
 839, 850, 851, 924, 923
 840, 851, 852, 925, 924
 841, 852, 853, 926, 925
 842, 853, 854, 927, 926
 843, 854, 855, 928, 927
 844, 855, 856, 929, 928
 845, 856, 857, 930, 929
 846, 857, 858, 931, 930
 847, 858, 859, 932, 931
 848, 859, 860, 933, 932
 849, 860, 861, 934, 933
 850, 861, 862, 935, 934
 851, 862, 863, 936, 935
 852, 863, 864, 937, 936
 853, 864, 865, 938, 937
 854, 865, 866, 939, 938
 855, 866, 867, 940, 939
 856, 867, 868, 941, 940
 857, 868, 869, 942, 941
 858, 869, 870, 943, 942
 859, 870, 871, 944, 943
 860, 871, 872, 945, 944
 861, 872, 873, 946, 945
 862, 873, 874, 947, 946
 863, 874, 875, 948, 947
 864, 875, 876, 949, 948
*ELSET, ELSET=ROW0
 1,2,3,4,5,6,7,8,9,10,11,12,13,14,15,16
 17,18,19,20,21,22,23,24,25,26,27,28,29,30,31,32
 33,34,35,36,37,38,39,40,41,42,43,44,45,46,47,48
 49,50,51,52,53,54,55,56,57,58,59,60,61,62,63,64
 65,66,67,68,69,70,71,72
*ELSET, ELSET=ROW1
 73,74,75,76,77,78,79,80,81,82,83,84,85,86,87,88
 89,90,91,92,93,94,95,96,97,98,99,100,101,102,103,104
 105,106,107,108,109,110,111,112,113,114,115,116,117,118,119,120
 121,122,123,124,125,126,127,128,129,130,131,132,133,134,135,136
 137,138,139,140,141,142,143,144
*ELSET, ELSET=ROW2
 145,146,147,148,149,150,151,152,153,154,155,156,157,158,159,160
 161,162,163,164,165,166,167,168,169,170,171,172,173,174,175,176
 177,178,179,180,181,182,183,184,185,186,187,188,189,190,191,192
 193,194,195,196,197,198,199,200,201,202,203,204,205,206,207,208
 209,210,211,212,213,214,215,216
*ELSET, ELSET=ROW3
 217,218,219,220,221,222,223,224,225,226,227,228,229,230,231,232
 233,234,235,236,237,238,239,240,241,242,243,244,245,246,247,248
 249,250,251,252,253,254,255,256,257,258,259,260,261,262,263,264
 265,266,267,268,269,270,271,272,273,274,275,276,277,278,279,280
 281,282,283,284,285,286,287,288
*ELSET, ELSET=ROW4
 289,290,291,292,293,294,295,296,297,298,299,300,301,302,303,304
 305,306,307,308,309,310,311,312,313,314,315,316,317,318,319,320
 321,322,323,324,325,326,327,328,329,330,331,332,333,334,335,336
 337,338,339,340,341,342,343,344,345,346,347,348,349,350,351,352
 353,354,355,356,357,358,359,360
*ELSET, ELSET=ROW5
 361,362,363,364,365,366,367,368,369,370,371,372,373,374,375,376
 377,378,379,380,381,382,383,384,385,386,387,388,389,390,391,392
 393,394,395,396,397,398,399,400,401,402,403,404,405,406,407,408
 409,410,411,412,413,414,415,416,417,418,419,420,421,422,423,424
 425,426,427,428,429,430,431,432
*ELSET, ELSET=ROW6
 433,434,435,436,437,438,439,440,441,442,443,444,445,446,447,448
 449,450,451,452,453,454,455,456,457,458,459,460,461,462,463,464
 465,466,467,468,469,470,471,472,473,474,475,476,477,478,479,480
 481,482,483,484,485,486,487,488,489,490,491,492,493,494,495,496
 497,498,499,500,501,502,503,504
*ELSET, ELSET=ROW7
 505,506,507,508,509,510,511,512,513,514,515,516,517,518,519,520
 521,522,523,524,525,526,527,528,529,530,531,532,533,534,535,536
 537,538,539,540,541,542,543,544,545,546,547,548,549,550,551,552
 553,554,555,556,557,558,559,560,561,562,563,564,565,566,567,568
 569,570,571,572,573,574,575,576
*ELSET, ELSET=ROW8
 577,578,579,580,581,582,583,584,585,586,587,588,589,590,591,592
 593,594,595,596,597,598,599,600,601,602,603,604,605,606,607,608
 609,610,611,612,613,614,615,616,617,618,619,620,621,622,623,624
 625,626,627,628,629,630,631,632,633,634,635,636,637,638,639,640
 641,642,643,644,645,646,647,648
*ELSET, ELSET=ROW9
 649,650,651,652,653,654,655,656,657,658,659,660,661,662,663,664
 665,666,667,668,669,670,671,672,673,674,675,676,677,678,679,680
 681,682,683,684,685,686,687,688,689,690,691,692,693,694,695,696
 697,698,699,700,701,702,703,704,705,706,707,708,709,710,711,712
 713,714,715,716,717,718,719,720
*ELSET, ELSET=ROW10
 721,722,723,724,725,726,727,728,729,730,731,732,733,734,735,736
 737,738,739,740,741,742,743,744,745,746,747,748,749,750,751,752
 753,754,755,756,757,758,759,760,761,762,763,764,765,766,767,768
 769,770,771,772,773,774,775,776,777,778,779,780,781,782,783,784
 785,786,787,788,789,790,791,792
*ELSET, ELSET=ROW11
 793,794,795,796,797,798,799,800,801,802,803,804,805,806,807,808
 809,810,811,812,813,814,815,816,817,818,819,820,821,822,823,824
 825,826,827,828,829,830,831,832,833,834,835,836,837,838,839,840
 841,842,843,844,845,846,847,848,849,850,851,852,853,854,855,856
 857,858,859,860,861,862,863,864
*ORIENTATION, NAME=ORI, SYSTEM=RECTANGULAR, DEFINITION=COORDINATES
 1.0, 0.0, 0.0, 0.0, 1.0, 0.0
 3, 0.0
*SOLID SECTION, ELSET=ROW0, MATERIAL=MAT0, ORIENTATION=ORI
*SOLID SECTION, ELSET=ROW1, MATERIAL=MAT1, ORIENTATION=ORI
*SOLID SECTION, ELSET=ROW2, MATERIAL=MAT2, ORIENTATION=ORI
*SOLID SECTION, ELSET=ROW3, MATERIAL=MAT3, ORIENTATION=ORI
*SOLID SECTION, ELSET=ROW4, MATERIAL=MAT4, ORIENTATION=ORI
*SOLID SECTION, ELSET=ROW5, MATERIAL=MAT5, ORIENTATION=ORI
*SOLID SECTION, ELSET=ROW6, MATERIAL=MAT6, ORIENTATION=ORI
*SOLID SECTION, ELSET=ROW7, MATERIAL=MAT7, ORIENTATION=ORI
*SOLID SECTION, ELSET=ROW8, MATERIAL=MAT8, ORIENTATION=ORI
*SOLID SECTION, ELSET=ROW9, MATERIAL=MAT9, ORIENTATION=ORI
*SOLID SECTION, ELSET=ROW10, MATERIAL=MAT10, ORIENTATION=ORI
*SOLID SECTION, ELSET=ROW11, MATERIAL=MAT11, ORIENTATION=ORI
*MATERIAL, NAME=MAT0
*ELASTIC
 5000.0, 0.450
*EXPANSION, TYPE=ORTHO, ZERO=0.0
 0.000000, 0.000000, 0.000000
*MATERIAL, NAME=MAT1
*ELASTIC
 5000.0, 0.450
*EXPANSION, TYPE=ORTHO, ZERO=0.0
 0.330638, 0.330638, 0.330638
*MATERIAL, NAME=MAT2
*ELASTIC
 5000.0, 0.450
*EXPANSION, TYPE=ORTHO, ZERO=0.0
 0.166538, 0.166538, 0.166538
*MATERIAL, NAME=MAT3
*ELASTIC
 5000.0, 0.450
*EXPANSION, TYPE=ORTHO, ZERO=0.0
 0.000000, 0.000000, 0.000000
*MATERIAL, NAME=MAT4
*ELASTIC
 5000.0, 0.450
*EXPANSION, TYPE=ORTHO, ZERO=0.0
 0.000000, 0.000000, 0.000000
*MATERIAL, NAME=MAT5
*ELASTIC
 5000.0, 0.450
*EXPANSION, TYPE=ORTHO, ZERO=0.0
 0.000000, 0.000000, 0.000000
*MATERIAL, NAME=MAT6
*ELASTIC
 5000.0, 0.450
*EXPANSION, TYPE=ORTHO, ZERO=0.0
 0.012704, 0.012704, 0.012704
*MATERIAL, NAME=MAT7
*ELASTIC
 5000.0, 0.450
*EXPANSION, TYPE=ORTHO, ZERO=0.0
 0.066013, 0.066013, 0.066013
*MATERIAL, NAME=MAT8
*ELASTIC
 5000.0, 0.450
*EXPANSION, TYPE=ORTHO, ZERO=0.0
 0.098268, 0.098268, 0.098268
*MATERIAL, NAME=MAT9
*ELASTIC
 5000.0, 0.450
*EXPANSION, TYPE=ORTHO, ZERO=0.0
 0.112092, 0.112092, 0.112092
*MATERIAL, NAME=MAT10
*ELASTIC
 5000.0, 0.450
*EXPANSION, TYPE=ORTHO, ZERO=0.0
 0.122926, 0.122926, 0.122926
*MATERIAL, NAME=MAT11
*ELASTIC
 5000.0, 0.450
*EXPANSION, TYPE=ORTHO, ZERO=0.0
 0.132669, 0.132669, 0.132669
*NSET, NSET=BOTTOM
 1,2,3,4,5,6,7,8,9,10,11,12,13,14,15,16
 17,18,19,20,21,22,23,24,25,26,27,28,29,30,31,32
 33,34,35,36,37,38,39,40,41,42,43,44,45,46,47,48
 49,50,51,52,53,54,55,56,57,58,59,60,61,62,63,64
 65,66,67,68,69,70,71,72,73
*NSET, NSET=LEFT
 1,74,147,220,293,366,439,512,585,658,731,804,877
*NSET, NSET=RIGHT
 73,146,219,292,365,438,511,584,657,730,803,876,949
*NSET, NSET=ALLN
 1,2,3,4,5,6,7,8,9,10,11,12,13,14,15,16
 17,18,19,20,21,22,23,24,25,26,27,28,29,30,31,32
 33,34,35,36,37,38,39,40,41,42,43,44,45,46,47,48
 49,50,51,52,53,54,55,56,57,58,59,60,61,62,63,64
 65,66,67,68,69,70,71,72,73,74,75,76,77,78,79,80
 81,82,83,84,85,86,87,88,89,90,91,92,93,94,95,96
 97,98,99,100,101,102,103,104,105,106,107,108,109,110,111,112
 113,114,115,116,117,118,119,120,121,122,123,124,125,126,127,128
 129,130,131,132,133,134,135,136,137,138,139,140,141,142,143,144
 145,146,147,148,149,150,151,152,153,154,155,156,157,158,159,160
 161,162,163,164,165,166,167,168,169,170,171,172,173,174,175,176
 177,178,179,180,181,182,183,184,185,186,187,188,189,190,191,192
 193,194,195,196,197,198,199,200,201,202,203,204,205,206,207,208
 209,210,211,212,213,214,215,216,217,218,219,220,221,222,223,224
 225,226,227,228,229,230,231,232,233,234,235,236,237,238,239,240
 241,242,243,244,245,246,247,248,249,250,251,252,253,254,255,256
 257,258,259,260,261,262,263,264,265,266,267,268,269,270,271,272
 273,274,275,276,277,278,279,280,281,282,283,284,285,286,287,288
 289,290,291,292,293,294,295,296,297,298,299,300,301,302,303,304
 305,306,307,308,309,310,311,312,313,314,315,316,317,318,319,320
 321,322,323,324,325,326,327,328,329,330,331,332,333,334,335,336
 337,338,339,340,341,342,343,344,345,346,347,348,349,350,351,352
 353,354,355,356,357,358,359,360,361,362,363,364,365,366,367,368
 369,370,371,372,373,374,375,376,377,378,379,380,381,382,383,384
 385,386,387,388,389,390,391,392,393,394,395,396,397,398,399,400
 401,402,403,404,405,406,407,408,409,410,411,412,413,414,415,416
 417,418,419,420,421,422,423,424,425,426,427,428,429,430,431,432
 433,434,435,436,437,438,439,440,441,442,443,444,445,446,447,448
 449,450,451,452,453,454,455,456,457,458,459,460,461,462,463,464
 465,466,467,468,469,470,471,472,473,474,475,476,477,478,479,480
 481,482,483,484,485,486,487,488,489,490,491,492,493,494,495,496
 497,498,499,500,501,502,503,504,505,506,507,508,509,510,511,512
 513,514,515,516,517,518,519,520,521,522,523,524,525,526,527,528
 529,530,531,532,533,534,535,536,537,538,539,540,541,542,543,544
 545,546,547,548,549,550,551,552,553,554,555,556,557,558,559,560
 561,562,563,564,565,566,567,568,569,570,571,572,573,574,575,576
 577,578,579,580,581,582,583,584,585,586,587,588,589,590,591,592
 593,594,595,596,597,598,599,600,601,602,603,604,605,606,607,608
 609,610,611,612,613,614,615,616,617,618,619,620,621,622,623,624
 625,626,627,628,629,630,631,632,633,634,635,636,637,638,639,640
 641,642,643,644,645,646,647,648,649,650,651,652,653,654,655,656
 657,658,659,660,661,662,663,664,665,666,667,668,669,670,671,672
 673,674,675,676,677,678,679,680,681,682,683,684,685,686,687,688
 689,690,691,692,693,694,695,696,697,698,699,700,701,702,703,704
 705,706,707,708,709,710,711,712,713,714,715,716,717,718,719,720
 721,722,723,724,725,726,727,728,729,730,731,732,733,734,735,736
 737,738,739,740,741,742,743,744,745,746,747,748,749,750,751,752
 753,754,755,756,757,758,759,760,761,762,763,764,765,766,767,768
 769,770,771,772,773,774,775,776,777,778,779,780,781,782,783,784
 785,786,787,788,789,790,791,792,793,794,795,796,797,798,799,800
 801,802,803,804,805,806,807,808,809,810,811,812,813,814,815,816
 817,818,819,820,821,822,823,824,825,826,827,828,829,830,831,832
 833,834,835,836,837,838,839,840,841,842,843,844,845,846,847,848
 849,850,851,852,853,854,855,856,857,858,859,860,861,862,863,864
 865,866,867,868,869,870,871,872,873,874,875,876,877,878,879,880
 881,882,883,884,885,886,887,888,889,890,891,892,893,894,895,896
 897,898,899,900,901,902,903,904,905,906,907,908,909,910,911,912
 913,914,915,916,917,918,919,920,921,922,923,924,925,926,927,928
 929,930,931,932,933,934,935,936,937,938,939,940,941,942,943,944
 945,946,947,948,949
*INITIAL CONDITIONS, TYPE=TEMPERATURE
 ALLN, 0.0
*BOUNDARY
 BOTTOM, 1, 2
*STEP
 Confined depth growth via thermal eigenstrain -> interface residual stress
*STATIC
*TEMPERATURE
 ALLN, 1.0
*OUTPUT, FIELD
*NODE OUTPUT
 U
*ELEMENT OUTPUT, POSITION=CENTROID
 S, COORD
*END STEP
