*HEADING
 Implant-thread biofilm eigenstrain deck: cond=DH profile=thread amp=0.180 (CPE4, no UMAT)
*NODE
 1, 0.000000, 0.000000
 2, 0.027778, 0.001367
 3, 0.055556, 0.005428
 4, 0.083333, 0.012058
 5, 0.111111, 0.021056
 6, 0.138889, 0.032149
 7, 0.166667, 0.045000
 8, 0.194444, 0.059218
 9, 0.222222, 0.074372
 10, 0.250000, 0.090000
 11, 0.277778, 0.105628
 12, 0.305556, 0.120782
 13, 0.333333, 0.135000
 14, 0.361111, 0.147851
 15, 0.388889, 0.158944
 16, 0.416667, 0.167942
 17, 0.444444, 0.174572
 18, 0.472222, 0.178633
 19, 0.500000, 0.180000
 20, 0.527778, 0.178633
 21, 0.555556, 0.174572
 22, 0.583333, 0.167942
 23, 0.611111, 0.158944
 24, 0.638889, 0.147851
 25, 0.666667, 0.135000
 26, 0.694444, 0.120782
 27, 0.722222, 0.105628
 28, 0.750000, 0.090000
 29, 0.777778, 0.074372
 30, 0.805556, 0.059218
 31, 0.833333, 0.045000
 32, 0.861111, 0.032149
 33, 0.888889, 0.021056
 34, 0.916667, 0.012058
 35, 0.944444, 0.005428
 36, 0.972222, 0.001367
 37, 1.000000, 0.000000
 38, 1.027778, 0.001367
 39, 1.055556, 0.005428
 40, 1.083333, 0.012058
 41, 1.111111, 0.021056
 42, 1.138889, 0.032149
 43, 1.166667, 0.045000
 44, 1.194444, 0.059218
 45, 1.222222, 0.074372
 46, 1.250000, 0.090000
 47, 1.277778, 0.105628
 48, 1.305556, 0.120782
 49, 1.333333, 0.135000
 50, 1.361111, 0.147851
 51, 1.388889, 0.158944
 52, 1.416667, 0.167942
 53, 1.444444, 0.174572
 54, 1.472222, 0.178633
 55, 1.500000, 0.180000
 56, 1.527778, 0.178633
 57, 1.555556, 0.174572
 58, 1.583333, 0.167942
 59, 1.611111, 0.158944
 60, 1.638889, 0.147851
 61, 1.666667, 0.135000
 62, 1.694444, 0.120782
 63, 1.722222, 0.105628
 64, 1.750000, 0.090000
 65, 1.777778, 0.074372
 66, 1.805556, 0.059218
 67, 1.833333, 0.045000
 68, 1.861111, 0.032149
 69, 1.888889, 0.021056
 70, 1.916667, 0.012058
 71, 1.944444, 0.005428
 72, 1.972222, 0.001367
 73, 2.000000, 0.000000
 74, 2.027778, 0.001367
 75, 2.055556, 0.005428
 76, 2.083333, 0.012058
 77, 2.111111, 0.021056
 78, 2.138889, 0.032149
 79, 2.166667, 0.045000
 80, 2.194444, 0.059218
 81, 2.222222, 0.074372
 82, 2.250000, 0.090000
 83, 2.277778, 0.105628
 84, 2.305556, 0.120782
 85, 2.333333, 0.135000
 86, 2.361111, 0.147851
 87, 2.388889, 0.158944
 88, 2.416667, 0.167942
 89, 2.444444, 0.174572
 90, 2.472222, 0.178633
 91, 2.500000, 0.180000
 92, 2.527778, 0.178633
 93, 2.555556, 0.174572
 94, 2.583333, 0.167942
 95, 2.611111, 0.158944
 96, 2.638889, 0.147851
 97, 2.666667, 0.135000
 98, 2.694444, 0.120782
 99, 2.722222, 0.105628
 100, 2.750000, 0.090000
 101, 2.777778, 0.074372
 102, 2.805556, 0.059218
 103, 2.833333, 0.045000
 104, 2.861111, 0.032149
 105, 2.888889, 0.021056
 106, 2.916667, 0.012058
 107, 2.944444, 0.005428
 108, 2.972222, 0.001367
 109, 3.000000, 0.000000
 110, 0.000000, 0.055556
 111, 0.027778, 0.056923
 112, 0.055556, 0.060983
 113, 0.083333, 0.067613
 114, 0.111111, 0.076612
 115, 0.138889, 0.087705
 116, 0.166667, 0.100556
 117, 0.194444, 0.114774
 118, 0.222222, 0.129927
 119, 0.250000, 0.145556
 120, 0.277778, 0.161184
 121, 0.305556, 0.176337
 122, 0.333333, 0.190556
 123, 0.361111, 0.203406
 124, 0.388889, 0.214500
 125, 0.416667, 0.223498
 126, 0.444444, 0.230128
 127, 0.472222, 0.234188
 128, 0.500000, 0.235556
 129, 0.527778, 0.234188
 130, 0.555556, 0.230128
 131, 0.583333, 0.223498
 132, 0.611111, 0.214500
 133, 0.638889, 0.203406
 134, 0.666667, 0.190556
 135, 0.694444, 0.176337
 136, 0.722222, 0.161184
 137, 0.750000, 0.145556
 138, 0.777778, 0.129927
 139, 0.805556, 0.114774
 140, 0.833333, 0.100556
 141, 0.861111, 0.087705
 142, 0.888889, 0.076612
 143, 0.916667, 0.067613
 144, 0.944444, 0.060983
 145, 0.972222, 0.056923
 146, 1.000000, 0.055556
 147, 1.027778, 0.056923
 148, 1.055556, 0.060983
 149, 1.083333, 0.067613
 150, 1.111111, 0.076612
 151, 1.138889, 0.087705
 152, 1.166667, 0.100556
 153, 1.194444, 0.114774
 154, 1.222222, 0.129927
 155, 1.250000, 0.145556
 156, 1.277778, 0.161184
 157, 1.305556, 0.176337
 158, 1.333333, 0.190556
 159, 1.361111, 0.203406
 160, 1.388889, 0.214500
 161, 1.416667, 0.223498
 162, 1.444444, 0.230128
 163, 1.472222, 0.234188
 164, 1.500000, 0.235556
 165, 1.527778, 0.234188
 166, 1.555556, 0.230128
 167, 1.583333, 0.223498
 168, 1.611111, 0.214500
 169, 1.638889, 0.203406
 170, 1.666667, 0.190556
 171, 1.694444, 0.176337
 172, 1.722222, 0.161184
 173, 1.750000, 0.145556
 174, 1.777778, 0.129927
 175, 1.805556, 0.114774
 176, 1.833333, 0.100556
 177, 1.861111, 0.087705
 178, 1.888889, 0.076612
 179, 1.916667, 0.067613
 180, 1.944444, 0.060983
 181, 1.972222, 0.056923
 182, 2.000000, 0.055556
 183, 2.027778, 0.056923
 184, 2.055556, 0.060983
 185, 2.083333, 0.067613
 186, 2.111111, 0.076612
 187, 2.138889, 0.087705
 188, 2.166667, 0.100556
 189, 2.194444, 0.114774
 190, 2.222222, 0.129927
 191, 2.250000, 0.145556
 192, 2.277778, 0.161184
 193, 2.305556, 0.176337
 194, 2.333333, 0.190556
 195, 2.361111, 0.203406
 196, 2.388889, 0.214500
 197, 2.416667, 0.223498
 198, 2.444444, 0.230128
 199, 2.472222, 0.234188
 200, 2.500000, 0.235556
 201, 2.527778, 0.234188
 202, 2.555556, 0.230128
 203, 2.583333, 0.223498
 204, 2.611111, 0.214500
 205, 2.638889, 0.203406
 206, 2.666667, 0.190556
 207, 2.694444, 0.176337
 208, 2.722222, 0.161184
 209, 2.750000, 0.145556
 210, 2.777778, 0.129927
 211, 2.805556, 0.114774
 212, 2.833333, 0.100556
 213, 2.861111, 0.087705
 214, 2.888889, 0.076612
 215, 2.916667, 0.067613
 216, 2.944444, 0.060983
 217, 2.972222, 0.056923
 218, 3.000000, 0.055556
 219, 0.000000, 0.111111
 220, 0.027778, 0.112478
 221, 0.055556, 0.116539
 222, 0.083333, 0.123169
 223, 0.111111, 0.132167
 224, 0.138889, 0.143260
 225, 0.166667, 0.156111
 226, 0.194444, 0.170329
 227, 0.222222, 0.185483
 228, 0.250000, 0.201111
 229, 0.277778, 0.216739
 230, 0.305556, 0.231893
 231, 0.333333, 0.246111
 232, 0.361111, 0.258962
 233, 0.388889, 0.270055
 234, 0.416667, 0.279053
 235, 0.444444, 0.285683
 236, 0.472222, 0.289744
 237, 0.500000, 0.291111
 238, 0.527778, 0.289744
 239, 0.555556, 0.285683
 240, 0.583333, 0.279053
 241, 0.611111, 0.270055
 242, 0.638889, 0.258962
 243, 0.666667, 0.246111
 244, 0.694444, 0.231893
 245, 0.722222, 0.216739
 246, 0.750000, 0.201111
 247, 0.777778, 0.185483
 248, 0.805556, 0.170329
 249, 0.833333, 0.156111
 250, 0.861111, 0.143260
 251, 0.888889, 0.132167
 252, 0.916667, 0.123169
 253, 0.944444, 0.116539
 254, 0.972222, 0.112478
 255, 1.000000, 0.111111
 256, 1.027778, 0.112478
 257, 1.055556, 0.116539
 258, 1.083333, 0.123169
 259, 1.111111, 0.132167
 260, 1.138889, 0.143260
 261, 1.166667, 0.156111
 262, 1.194444, 0.170329
 263, 1.222222, 0.185483
 264, 1.250000, 0.201111
 265, 1.277778, 0.216739
 266, 1.305556, 0.231893
 267, 1.333333, 0.246111
 268, 1.361111, 0.258962
 269, 1.388889, 0.270055
 270, 1.416667, 0.279053
 271, 1.444444, 0.285683
 272, 1.472222, 0.289744
 273, 1.500000, 0.291111
 274, 1.527778, 0.289744
 275, 1.555556, 0.285683
 276, 1.583333, 0.279053
 277, 1.611111, 0.270055
 278, 1.638889, 0.258962
 279, 1.666667, 0.246111
 280, 1.694444, 0.231893
 281, 1.722222, 0.216739
 282, 1.750000, 0.201111
 283, 1.777778, 0.185483
 284, 1.805556, 0.170329
 285, 1.833333, 0.156111
 286, 1.861111, 0.143260
 287, 1.888889, 0.132167
 288, 1.916667, 0.123169
 289, 1.944444, 0.116539
 290, 1.972222, 0.112478
 291, 2.000000, 0.111111
 292, 2.027778, 0.112478
 293, 2.055556, 0.116539
 294, 2.083333, 0.123169
 295, 2.111111, 0.132167
 296, 2.138889, 0.143260
 297, 2.166667, 0.156111
 298, 2.194444, 0.170329
 299, 2.222222, 0.185483
 300, 2.250000, 0.201111
 301, 2.277778, 0.216739
 302, 2.305556, 0.231893
 303, 2.333333, 0.246111
 304, 2.361111, 0.258962
 305, 2.388889, 0.270055
 306, 2.416667, 0.279053
 307, 2.444444, 0.285683
 308, 2.472222, 0.289744
 309, 2.500000, 0.291111
 310, 2.527778, 0.289744
 311, 2.555556, 0.285683
 312, 2.583333, 0.279053
 313, 2.611111, 0.270055
 314, 2.638889, 0.258962
 315, 2.666667, 0.246111
 316, 2.694444, 0.231893
 317, 2.722222, 0.216739
 318, 2.750000, 0.201111
 319, 2.777778, 0.185483
 320, 2.805556, 0.170329
 321, 2.833333, 0.156111
 322, 2.861111, 0.143260
 323, 2.888889, 0.132167
 324, 2.916667, 0.123169
 325, 2.944444, 0.116539
 326, 2.972222, 0.112478
 327, 3.000000, 0.111111
 328, 0.000000, 0.166667
 329, 0.027778, 0.168034
 330, 0.055556, 0.172094
 331, 0.083333, 0.178724
 332, 0.111111, 0.187723
 333, 0.138889, 0.198816
 334, 0.166667, 0.211667
 335, 0.194444, 0.225885
 336, 0.222222, 0.241038
 337, 0.250000, 0.256667
 338, 0.277778, 0.272295
 339, 0.305556, 0.287448
 340, 0.333333, 0.301667
 341, 0.361111, 0.314518
 342, 0.388889, 0.325611
 343, 0.416667, 0.334609
 344, 0.444444, 0.341239
 345, 0.472222, 0.345299
 346, 0.500000, 0.346667
 347, 0.527778, 0.345299
 348, 0.555556, 0.341239
 349, 0.583333, 0.334609
 350, 0.611111, 0.325611
 351, 0.638889, 0.314518
 352, 0.666667, 0.301667
 353, 0.694444, 0.287448
 354, 0.722222, 0.272295
 355, 0.750000, 0.256667
 356, 0.777778, 0.241038
 357, 0.805556, 0.225885
 358, 0.833333, 0.211667
 359, 0.861111, 0.198816
 360, 0.888889, 0.187723
 361, 0.916667, 0.178724
 362, 0.944444, 0.172094
 363, 0.972222, 0.168034
 364, 1.000000, 0.166667
 365, 1.027778, 0.168034
 366, 1.055556, 0.172094
 367, 1.083333, 0.178724
 368, 1.111111, 0.187723
 369, 1.138889, 0.198816
 370, 1.166667, 0.211667
 371, 1.194444, 0.225885
 372, 1.222222, 0.241038
 373, 1.250000, 0.256667
 374, 1.277778, 0.272295
 375, 1.305556, 0.287448
 376, 1.333333, 0.301667
 377, 1.361111, 0.314518
 378, 1.388889, 0.325611
 379, 1.416667, 0.334609
 380, 1.444444, 0.341239
 381, 1.472222, 0.345299
 382, 1.500000, 0.346667
 383, 1.527778, 0.345299
 384, 1.555556, 0.341239
 385, 1.583333, 0.334609
 386, 1.611111, 0.325611
 387, 1.638889, 0.314518
 388, 1.666667, 0.301667
 389, 1.694444, 0.287448
 390, 1.722222, 0.272295
 391, 1.750000, 0.256667
 392, 1.777778, 0.241038
 393, 1.805556, 0.225885
 394, 1.833333, 0.211667
 395, 1.861111, 0.198816
 396, 1.888889, 0.187723
 397, 1.916667, 0.178724
 398, 1.944444, 0.172094
 399, 1.972222, 0.168034
 400, 2.000000, 0.166667
 401, 2.027778, 0.168034
 402, 2.055556, 0.172094
 403, 2.083333, 0.178724
 404, 2.111111, 0.187723
 405, 2.138889, 0.198816
 406, 2.166667, 0.211667
 407, 2.194444, 0.225885
 408, 2.222222, 0.241038
 409, 2.250000, 0.256667
 410, 2.277778, 0.272295
 411, 2.305556, 0.287448
 412, 2.333333, 0.301667
 413, 2.361111, 0.314518
 414, 2.388889, 0.325611
 415, 2.416667, 0.334609
 416, 2.444444, 0.341239
 417, 2.472222, 0.345299
 418, 2.500000, 0.346667
 419, 2.527778, 0.345299
 420, 2.555556, 0.341239
 421, 2.583333, 0.334609
 422, 2.611111, 0.325611
 423, 2.638889, 0.314518
 424, 2.666667, 0.301667
 425, 2.694444, 0.287448
 426, 2.722222, 0.272295
 427, 2.750000, 0.256667
 428, 2.777778, 0.241038
 429, 2.805556, 0.225885
 430, 2.833333, 0.211667
 431, 2.861111, 0.198816
 432, 2.888889, 0.187723
 433, 2.916667, 0.178724
 434, 2.944444, 0.172094
 435, 2.972222, 0.168034
 436, 3.000000, 0.166667
 437, 0.000000, 0.222222
 438, 0.027778, 0.223590
 439, 0.055556, 0.227650
 440, 0.083333, 0.234280
 441, 0.111111, 0.243278
 442, 0.138889, 0.254371
 443, 0.166667, 0.267222
 444, 0.194444, 0.281440
 445, 0.222222, 0.296594
 446, 0.250000, 0.312222
 447, 0.277778, 0.327851
 448, 0.305556, 0.343004
 449, 0.333333, 0.357222
 450, 0.361111, 0.370073
 451, 0.388889, 0.381166
 452, 0.416667, 0.390165
 453, 0.444444, 0.396795
 454, 0.472222, 0.400855
 455, 0.500000, 0.402222
 456, 0.527778, 0.400855
 457, 0.555556, 0.396795
 458, 0.583333, 0.390165
 459, 0.611111, 0.381166
 460, 0.638889, 0.370073
 461, 0.666667, 0.357222
 462, 0.694444, 0.343004
 463, 0.722222, 0.327851
 464, 0.750000, 0.312222
 465, 0.777778, 0.296594
 466, 0.805556, 0.281440
 467, 0.833333, 0.267222
 468, 0.861111, 0.254371
 469, 0.888889, 0.243278
 470, 0.916667, 0.234280
 471, 0.944444, 0.227650
 472, 0.972222, 0.223590
 473, 1.000000, 0.222222
 474, 1.027778, 0.223590
 475, 1.055556, 0.227650
 476, 1.083333, 0.234280
 477, 1.111111, 0.243278
 478, 1.138889, 0.254371
 479, 1.166667, 0.267222
 480, 1.194444, 0.281440
 481, 1.222222, 0.296594
 482, 1.250000, 0.312222
 483, 1.277778, 0.327851
 484, 1.305556, 0.343004
 485, 1.333333, 0.357222
 486, 1.361111, 0.370073
 487, 1.388889, 0.381166
 488, 1.416667, 0.390165
 489, 1.444444, 0.396795
 490, 1.472222, 0.400855
 491, 1.500000, 0.402222
 492, 1.527778, 0.400855
 493, 1.555556, 0.396795
 494, 1.583333, 0.390165
 495, 1.611111, 0.381166
 496, 1.638889, 0.370073
 497, 1.666667, 0.357222
 498, 1.694444, 0.343004
 499, 1.722222, 0.327851
 500, 1.750000, 0.312222
 501, 1.777778, 0.296594
 502, 1.805556, 0.281440
 503, 1.833333, 0.267222
 504, 1.861111, 0.254371
 505, 1.888889, 0.243278
 506, 1.916667, 0.234280
 507, 1.944444, 0.227650
 508, 1.972222, 0.223590
 509, 2.000000, 0.222222
 510, 2.027778, 0.223590
 511, 2.055556, 0.227650
 512, 2.083333, 0.234280
 513, 2.111111, 0.243278
 514, 2.138889, 0.254371
 515, 2.166667, 0.267222
 516, 2.194444, 0.281440
 517, 2.222222, 0.296594
 518, 2.250000, 0.312222
 519, 2.277778, 0.327851
 520, 2.305556, 0.343004
 521, 2.333333, 0.357222
 522, 2.361111, 0.370073
 523, 2.388889, 0.381166
 524, 2.416667, 0.390165
 525, 2.444444, 0.396795
 526, 2.472222, 0.400855
 527, 2.500000, 0.402222
 528, 2.527778, 0.400855
 529, 2.555556, 0.396795
 530, 2.583333, 0.390165
 531, 2.611111, 0.381166
 532, 2.638889, 0.370073
 533, 2.666667, 0.357222
 534, 2.694444, 0.343004
 535, 2.722222, 0.327851
 536, 2.750000, 0.312222
 537, 2.777778, 0.296594
 538, 2.805556, 0.281440
 539, 2.833333, 0.267222
 540, 2.861111, 0.254371
 541, 2.888889, 0.243278
 542, 2.916667, 0.234280
 543, 2.944444, 0.227650
 544, 2.972222, 0.223590
 545, 3.000000, 0.222222
 546, 0.000000, 0.277778
 547, 0.027778, 0.279145
 548, 0.055556, 0.283205
 549, 0.083333, 0.289835
 550, 0.111111, 0.298834
 551, 0.138889, 0.309927
 552, 0.166667, 0.322778
 553, 0.194444, 0.336996
 554, 0.222222, 0.352149
 555, 0.250000, 0.367778
 556, 0.277778, 0.383406
 557, 0.305556, 0.398560
 558, 0.333333, 0.412778
 559, 0.361111, 0.425629
 560, 0.388889, 0.436722
 561, 0.416667, 0.445720
 562, 0.444444, 0.452350
 563, 0.472222, 0.456410
 564, 0.500000, 0.457778
 565, 0.527778, 0.456410
 566, 0.555556, 0.452350
 567, 0.583333, 0.445720
 568, 0.611111, 0.436722
 569, 0.638889, 0.425629
 570, 0.666667, 0.412778
 571, 0.694444, 0.398560
 572, 0.722222, 0.383406
 573, 0.750000, 0.367778
 574, 0.777778, 0.352149
 575, 0.805556, 0.336996
 576, 0.833333, 0.322778
 577, 0.861111, 0.309927
 578, 0.888889, 0.298834
 579, 0.916667, 0.289835
 580, 0.944444, 0.283205
 581, 0.972222, 0.279145
 582, 1.000000, 0.277778
 583, 1.027778, 0.279145
 584, 1.055556, 0.283205
 585, 1.083333, 0.289835
 586, 1.111111, 0.298834
 587, 1.138889, 0.309927
 588, 1.166667, 0.322778
 589, 1.194444, 0.336996
 590, 1.222222, 0.352149
 591, 1.250000, 0.367778
 592, 1.277778, 0.383406
 593, 1.305556, 0.398560
 594, 1.333333, 0.412778
 595, 1.361111, 0.425629
 596, 1.388889, 0.436722
 597, 1.416667, 0.445720
 598, 1.444444, 0.452350
 599, 1.472222, 0.456410
 600, 1.500000, 0.457778
 601, 1.527778, 0.456410
 602, 1.555556, 0.452350
 603, 1.583333, 0.445720
 604, 1.611111, 0.436722
 605, 1.638889, 0.425629
 606, 1.666667, 0.412778
 607, 1.694444, 0.398560
 608, 1.722222, 0.383406
 609, 1.750000, 0.367778
 610, 1.777778, 0.352149
 611, 1.805556, 0.336996
 612, 1.833333, 0.322778
 613, 1.861111, 0.309927
 614, 1.888889, 0.298834
 615, 1.916667, 0.289835
 616, 1.944444, 0.283205
 617, 1.972222, 0.279145
 618, 2.000000, 0.277778
 619, 2.027778, 0.279145
 620, 2.055556, 0.283205
 621, 2.083333, 0.289835
 622, 2.111111, 0.298834
 623, 2.138889, 0.309927
 624, 2.166667, 0.322778
 625, 2.194444, 0.336996
 626, 2.222222, 0.352149
 627, 2.250000, 0.367778
 628, 2.277778, 0.383406
 629, 2.305556, 0.398560
 630, 2.333333, 0.412778
 631, 2.361111, 0.425629
 632, 2.388889, 0.436722
 633, 2.416667, 0.445720
 634, 2.444444, 0.452350
 635, 2.472222, 0.456410
 636, 2.500000, 0.457778
 637, 2.527778, 0.456410
 638, 2.555556, 0.452350
 639, 2.583333, 0.445720
 640, 2.611111, 0.436722
 641, 2.638889, 0.425629
 642, 2.666667, 0.412778
 643, 2.694444, 0.398560
 644, 2.722222, 0.383406
 645, 2.750000, 0.367778
 646, 2.777778, 0.352149
 647, 2.805556, 0.336996
 648, 2.833333, 0.322778
 649, 2.861111, 0.309927
 650, 2.888889, 0.298834
 651, 2.916667, 0.289835
 652, 2.944444, 0.283205
 653, 2.972222, 0.279145
 654, 3.000000, 0.277778
 655, 0.000000, 0.333333
 656, 0.027778, 0.334701
 657, 0.055556, 0.338761
 658, 0.083333, 0.345391
 659, 0.111111, 0.354389
 660, 0.138889, 0.365482
 661, 0.166667, 0.378333
 662, 0.194444, 0.392552
 663, 0.222222, 0.407705
 664, 0.250000, 0.423333
 665, 0.277778, 0.438962
 666, 0.305556, 0.454115
 667, 0.333333, 0.468333
 668, 0.361111, 0.481184
 669, 0.388889, 0.492277
 670, 0.416667, 0.501276
 671, 0.444444, 0.507906
 672, 0.472222, 0.511966
 673, 0.500000, 0.513333
 674, 0.527778, 0.511966
 675, 0.555556, 0.507906
 676, 0.583333, 0.501276
 677, 0.611111, 0.492277
 678, 0.638889, 0.481184
 679, 0.666667, 0.468333
 680, 0.694444, 0.454115
 681, 0.722222, 0.438962
 682, 0.750000, 0.423333
 683, 0.777778, 0.407705
 684, 0.805556, 0.392552
 685, 0.833333, 0.378333
 686, 0.861111, 0.365482
 687, 0.888889, 0.354389
 688, 0.916667, 0.345391
 689, 0.944444, 0.338761
 690, 0.972222, 0.334701
 691, 1.000000, 0.333333
 692, 1.027778, 0.334701
 693, 1.055556, 0.338761
 694, 1.083333, 0.345391
 695, 1.111111, 0.354389
 696, 1.138889, 0.365482
 697, 1.166667, 0.378333
 698, 1.194444, 0.392552
 699, 1.222222, 0.407705
 700, 1.250000, 0.423333
 701, 1.277778, 0.438962
 702, 1.305556, 0.454115
 703, 1.333333, 0.468333
 704, 1.361111, 0.481184
 705, 1.388889, 0.492277
 706, 1.416667, 0.501276
 707, 1.444444, 0.507906
 708, 1.472222, 0.511966
 709, 1.500000, 0.513333
 710, 1.527778, 0.511966
 711, 1.555556, 0.507906
 712, 1.583333, 0.501276
 713, 1.611111, 0.492277
 714, 1.638889, 0.481184
 715, 1.666667, 0.468333
 716, 1.694444, 0.454115
 717, 1.722222, 0.438962
 718, 1.750000, 0.423333
 719, 1.777778, 0.407705
 720, 1.805556, 0.392552
 721, 1.833333, 0.378333
 722, 1.861111, 0.365482
 723, 1.888889, 0.354389
 724, 1.916667, 0.345391
 725, 1.944444, 0.338761
 726, 1.972222, 0.334701
 727, 2.000000, 0.333333
 728, 2.027778, 0.334701
 729, 2.055556, 0.338761
 730, 2.083333, 0.345391
 731, 2.111111, 0.354389
 732, 2.138889, 0.365482
 733, 2.166667, 0.378333
 734, 2.194444, 0.392552
 735, 2.222222, 0.407705
 736, 2.250000, 0.423333
 737, 2.277778, 0.438962
 738, 2.305556, 0.454115
 739, 2.333333, 0.468333
 740, 2.361111, 0.481184
 741, 2.388889, 0.492277
 742, 2.416667, 0.501276
 743, 2.444444, 0.507906
 744, 2.472222, 0.511966
 745, 2.500000, 0.513333
 746, 2.527778, 0.511966
 747, 2.555556, 0.507906
 748, 2.583333, 0.501276
 749, 2.611111, 0.492277
 750, 2.638889, 0.481184
 751, 2.666667, 0.468333
 752, 2.694444, 0.454115
 753, 2.722222, 0.438962
 754, 2.750000, 0.423333
 755, 2.777778, 0.407705
 756, 2.805556, 0.392552
 757, 2.833333, 0.378333
 758, 2.861111, 0.365482
 759, 2.888889, 0.354389
 760, 2.916667, 0.345391
 761, 2.944444, 0.338761
 762, 2.972222, 0.334701
 763, 3.000000, 0.333333
 764, 0.000000, 0.388889
 765, 0.027778, 0.390256
 766, 0.055556, 0.394317
 767, 0.083333, 0.400947
 768, 0.111111, 0.409945
 769, 0.138889, 0.421038
 770, 0.166667, 0.433889
 771, 0.194444, 0.448107
 772, 0.222222, 0.463261
 773, 0.250000, 0.478889
 774, 0.277778, 0.494517
 775, 0.305556, 0.509671
 776, 0.333333, 0.523889
 777, 0.361111, 0.536740
 778, 0.388889, 0.547833
 779, 0.416667, 0.556831
 780, 0.444444, 0.563461
 781, 0.472222, 0.567522
 782, 0.500000, 0.568889
 783, 0.527778, 0.567522
 784, 0.555556, 0.563461
 785, 0.583333, 0.556831
 786, 0.611111, 0.547833
 787, 0.638889, 0.536740
 788, 0.666667, 0.523889
 789, 0.694444, 0.509671
 790, 0.722222, 0.494517
 791, 0.750000, 0.478889
 792, 0.777778, 0.463261
 793, 0.805556, 0.448107
 794, 0.833333, 0.433889
 795, 0.861111, 0.421038
 796, 0.888889, 0.409945
 797, 0.916667, 0.400947
 798, 0.944444, 0.394317
 799, 0.972222, 0.390256
 800, 1.000000, 0.388889
 801, 1.027778, 0.390256
 802, 1.055556, 0.394317
 803, 1.083333, 0.400947
 804, 1.111111, 0.409945
 805, 1.138889, 0.421038
 806, 1.166667, 0.433889
 807, 1.194444, 0.448107
 808, 1.222222, 0.463261
 809, 1.250000, 0.478889
 810, 1.277778, 0.494517
 811, 1.305556, 0.509671
 812, 1.333333, 0.523889
 813, 1.361111, 0.536740
 814, 1.388889, 0.547833
 815, 1.416667, 0.556831
 816, 1.444444, 0.563461
 817, 1.472222, 0.567522
 818, 1.500000, 0.568889
 819, 1.527778, 0.567522
 820, 1.555556, 0.563461
 821, 1.583333, 0.556831
 822, 1.611111, 0.547833
 823, 1.638889, 0.536740
 824, 1.666667, 0.523889
 825, 1.694444, 0.509671
 826, 1.722222, 0.494517
 827, 1.750000, 0.478889
 828, 1.777778, 0.463261
 829, 1.805556, 0.448107
 830, 1.833333, 0.433889
 831, 1.861111, 0.421038
 832, 1.888889, 0.409945
 833, 1.916667, 0.400947
 834, 1.944444, 0.394317
 835, 1.972222, 0.390256
 836, 2.000000, 0.388889
 837, 2.027778, 0.390256
 838, 2.055556, 0.394317
 839, 2.083333, 0.400947
 840, 2.111111, 0.409945
 841, 2.138889, 0.421038
 842, 2.166667, 0.433889
 843, 2.194444, 0.448107
 844, 2.222222, 0.463261
 845, 2.250000, 0.478889
 846, 2.277778, 0.494517
 847, 2.305556, 0.509671
 848, 2.333333, 0.523889
 849, 2.361111, 0.536740
 850, 2.388889, 0.547833
 851, 2.416667, 0.556831
 852, 2.444444, 0.563461
 853, 2.472222, 0.567522
 854, 2.500000, 0.568889
 855, 2.527778, 0.567522
 856, 2.555556, 0.563461
 857, 2.583333, 0.556831
 858, 2.611111, 0.547833
 859, 2.638889, 0.536740
 860, 2.666667, 0.523889
 861, 2.694444, 0.509671
 862, 2.722222, 0.494517
 863, 2.750000, 0.478889
 864, 2.777778, 0.463261
 865, 2.805556, 0.448107
 866, 2.833333, 0.433889
 867, 2.861111, 0.421038
 868, 2.888889, 0.409945
 869, 2.916667, 0.400947
 870, 2.944444, 0.394317
 871, 2.972222, 0.390256
 872, 3.000000, 0.388889
 873, 0.000000, 0.444444
 874, 0.027778, 0.445812
 875, 0.055556, 0.449872
 876, 0.083333, 0.456502
 877, 0.111111, 0.465500
 878, 0.138889, 0.476594
 879, 0.166667, 0.489444
 880, 0.194444, 0.503663
 881, 0.222222, 0.518816
 882, 0.250000, 0.534444
 883, 0.277778, 0.550073
 884, 0.305556, 0.565226
 885, 0.333333, 0.579444
 886, 0.361111, 0.592295
 887, 0.388889, 0.603388
 888, 0.416667, 0.612387
 889, 0.444444, 0.619017
 890, 0.472222, 0.623077
 891, 0.500000, 0.624444
 892, 0.527778, 0.623077
 893, 0.555556, 0.619017
 894, 0.583333, 0.612387
 895, 0.611111, 0.603388
 896, 0.638889, 0.592295
 897, 0.666667, 0.579444
 898, 0.694444, 0.565226
 899, 0.722222, 0.550073
 900, 0.750000, 0.534444
 901, 0.777778, 0.518816
 902, 0.805556, 0.503663
 903, 0.833333, 0.489444
 904, 0.861111, 0.476594
 905, 0.888889, 0.465500
 906, 0.916667, 0.456502
 907, 0.944444, 0.449872
 908, 0.972222, 0.445812
 909, 1.000000, 0.444444
 910, 1.027778, 0.445812
 911, 1.055556, 0.449872
 912, 1.083333, 0.456502
 913, 1.111111, 0.465500
 914, 1.138889, 0.476594
 915, 1.166667, 0.489444
 916, 1.194444, 0.503663
 917, 1.222222, 0.518816
 918, 1.250000, 0.534444
 919, 1.277778, 0.550073
 920, 1.305556, 0.565226
 921, 1.333333, 0.579444
 922, 1.361111, 0.592295
 923, 1.388889, 0.603388
 924, 1.416667, 0.612387
 925, 1.444444, 0.619017
 926, 1.472222, 0.623077
 927, 1.500000, 0.624444
 928, 1.527778, 0.623077
 929, 1.555556, 0.619017
 930, 1.583333, 0.612387
 931, 1.611111, 0.603388
 932, 1.638889, 0.592295
 933, 1.666667, 0.579444
 934, 1.694444, 0.565226
 935, 1.722222, 0.550073
 936, 1.750000, 0.534444
 937, 1.777778, 0.518816
 938, 1.805556, 0.503663
 939, 1.833333, 0.489444
 940, 1.861111, 0.476594
 941, 1.888889, 0.465500
 942, 1.916667, 0.456502
 943, 1.944444, 0.449872
 944, 1.972222, 0.445812
 945, 2.000000, 0.444444
 946, 2.027778, 0.445812
 947, 2.055556, 0.449872
 948, 2.083333, 0.456502
 949, 2.111111, 0.465500
 950, 2.138889, 0.476594
 951, 2.166667, 0.489444
 952, 2.194444, 0.503663
 953, 2.222222, 0.518816
 954, 2.250000, 0.534444
 955, 2.277778, 0.550073
 956, 2.305556, 0.565226
 957, 2.333333, 0.579444
 958, 2.361111, 0.592295
 959, 2.388889, 0.603388
 960, 2.416667, 0.612387
 961, 2.444444, 0.619017
 962, 2.472222, 0.623077
 963, 2.500000, 0.624444
 964, 2.527778, 0.623077
 965, 2.555556, 0.619017
 966, 2.583333, 0.612387
 967, 2.611111, 0.603388
 968, 2.638889, 0.592295
 969, 2.666667, 0.579444
 970, 2.694444, 0.565226
 971, 2.722222, 0.550073
 972, 2.750000, 0.534444
 973, 2.777778, 0.518816
 974, 2.805556, 0.503663
 975, 2.833333, 0.489444
 976, 2.861111, 0.476594
 977, 2.888889, 0.465500
 978, 2.916667, 0.456502
 979, 2.944444, 0.449872
 980, 2.972222, 0.445812
 981, 3.000000, 0.444444
 982, 0.000000, 0.500000
 983, 0.027778, 0.501367
 984, 0.055556, 0.505428
 985, 0.083333, 0.512058
 986, 0.111111, 0.521056
 987, 0.138889, 0.532149
 988, 0.166667, 0.545000
 989, 0.194444, 0.559218
 990, 0.222222, 0.574372
 991, 0.250000, 0.590000
 992, 0.277778, 0.605628
 993, 0.305556, 0.620782
 994, 0.333333, 0.635000
 995, 0.361111, 0.647851
 996, 0.388889, 0.658944
 997, 0.416667, 0.667942
 998, 0.444444, 0.674572
 999, 0.472222, 0.678633
 1000, 0.500000, 0.680000
 1001, 0.527778, 0.678633
 1002, 0.555556, 0.674572
 1003, 0.583333, 0.667942
 1004, 0.611111, 0.658944
 1005, 0.638889, 0.647851
 1006, 0.666667, 0.635000
 1007, 0.694444, 0.620782
 1008, 0.722222, 0.605628
 1009, 0.750000, 0.590000
 1010, 0.777778, 0.574372
 1011, 0.805556, 0.559218
 1012, 0.833333, 0.545000
 1013, 0.861111, 0.532149
 1014, 0.888889, 0.521056
 1015, 0.916667, 0.512058
 1016, 0.944444, 0.505428
 1017, 0.972222, 0.501367
 1018, 1.000000, 0.500000
 1019, 1.027778, 0.501367
 1020, 1.055556, 0.505428
 1021, 1.083333, 0.512058
 1022, 1.111111, 0.521056
 1023, 1.138889, 0.532149
 1024, 1.166667, 0.545000
 1025, 1.194444, 0.559218
 1026, 1.222222, 0.574372
 1027, 1.250000, 0.590000
 1028, 1.277778, 0.605628
 1029, 1.305556, 0.620782
 1030, 1.333333, 0.635000
 1031, 1.361111, 0.647851
 1032, 1.388889, 0.658944
 1033, 1.416667, 0.667942
 1034, 1.444444, 0.674572
 1035, 1.472222, 0.678633
 1036, 1.500000, 0.680000
 1037, 1.527778, 0.678633
 1038, 1.555556, 0.674572
 1039, 1.583333, 0.667942
 1040, 1.611111, 0.658944
 1041, 1.638889, 0.647851
 1042, 1.666667, 0.635000
 1043, 1.694444, 0.620782
 1044, 1.722222, 0.605628
 1045, 1.750000, 0.590000
 1046, 1.777778, 0.574372
 1047, 1.805556, 0.559218
 1048, 1.833333, 0.545000
 1049, 1.861111, 0.532149
 1050, 1.888889, 0.521056
 1051, 1.916667, 0.512058
 1052, 1.944444, 0.505428
 1053, 1.972222, 0.501367
 1054, 2.000000, 0.500000
 1055, 2.027778, 0.501367
 1056, 2.055556, 0.505428
 1057, 2.083333, 0.512058
 1058, 2.111111, 0.521056
 1059, 2.138889, 0.532149
 1060, 2.166667, 0.545000
 1061, 2.194444, 0.559218
 1062, 2.222222, 0.574372
 1063, 2.250000, 0.590000
 1064, 2.277778, 0.605628
 1065, 2.305556, 0.620782
 1066, 2.333333, 0.635000
 1067, 2.361111, 0.647851
 1068, 2.388889, 0.658944
 1069, 2.416667, 0.667942
 1070, 2.444444, 0.674572
 1071, 2.472222, 0.678633
 1072, 2.500000, 0.680000
 1073, 2.527778, 0.678633
 1074, 2.555556, 0.674572
 1075, 2.583333, 0.667942
 1076, 2.611111, 0.658944
 1077, 2.638889, 0.647851
 1078, 2.666667, 0.635000
 1079, 2.694444, 0.620782
 1080, 2.722222, 0.605628
 1081, 2.750000, 0.590000
 1082, 2.777778, 0.574372
 1083, 2.805556, 0.559218
 1084, 2.833333, 0.545000
 1085, 2.861111, 0.532149
 1086, 2.888889, 0.521056
 1087, 2.916667, 0.512058
 1088, 2.944444, 0.505428
 1089, 2.972222, 0.501367
 1090, 3.000000, 0.500000
 1091, 0.000000, 0.555556
 1092, 0.027778, 0.556923
 1093, 0.055556, 0.560983
 1094, 0.083333, 0.567613
 1095, 0.111111, 0.576612
 1096, 0.138889, 0.587705
 1097, 0.166667, 0.600556
 1098, 0.194444, 0.614774
 1099, 0.222222, 0.629927
 1100, 0.250000, 0.645556
 1101, 0.277778, 0.661184
 1102, 0.305556, 0.676337
 1103, 0.333333, 0.690556
 1104, 0.361111, 0.703406
 1105, 0.388889, 0.714500
 1106, 0.416667, 0.723498
 1107, 0.444444, 0.730128
 1108, 0.472222, 0.734188
 1109, 0.500000, 0.735556
 1110, 0.527778, 0.734188
 1111, 0.555556, 0.730128
 1112, 0.583333, 0.723498
 1113, 0.611111, 0.714500
 1114, 0.638889, 0.703406
 1115, 0.666667, 0.690556
 1116, 0.694444, 0.676337
 1117, 0.722222, 0.661184
 1118, 0.750000, 0.645556
 1119, 0.777778, 0.629927
 1120, 0.805556, 0.614774
 1121, 0.833333, 0.600556
 1122, 0.861111, 0.587705
 1123, 0.888889, 0.576612
 1124, 0.916667, 0.567613
 1125, 0.944444, 0.560983
 1126, 0.972222, 0.556923
 1127, 1.000000, 0.555556
 1128, 1.027778, 0.556923
 1129, 1.055556, 0.560983
 1130, 1.083333, 0.567613
 1131, 1.111111, 0.576612
 1132, 1.138889, 0.587705
 1133, 1.166667, 0.600556
 1134, 1.194444, 0.614774
 1135, 1.222222, 0.629927
 1136, 1.250000, 0.645556
 1137, 1.277778, 0.661184
 1138, 1.305556, 0.676337
 1139, 1.333333, 0.690556
 1140, 1.361111, 0.703406
 1141, 1.388889, 0.714500
 1142, 1.416667, 0.723498
 1143, 1.444444, 0.730128
 1144, 1.472222, 0.734188
 1145, 1.500000, 0.735556
 1146, 1.527778, 0.734188
 1147, 1.555556, 0.730128
 1148, 1.583333, 0.723498
 1149, 1.611111, 0.714500
 1150, 1.638889, 0.703406
 1151, 1.666667, 0.690556
 1152, 1.694444, 0.676337
 1153, 1.722222, 0.661184
 1154, 1.750000, 0.645556
 1155, 1.777778, 0.629927
 1156, 1.805556, 0.614774
 1157, 1.833333, 0.600556
 1158, 1.861111, 0.587705
 1159, 1.888889, 0.576612
 1160, 1.916667, 0.567613
 1161, 1.944444, 0.560983
 1162, 1.972222, 0.556923
 1163, 2.000000, 0.555556
 1164, 2.027778, 0.556923
 1165, 2.055556, 0.560983
 1166, 2.083333, 0.567613
 1167, 2.111111, 0.576612
 1168, 2.138889, 0.587705
 1169, 2.166667, 0.600556
 1170, 2.194444, 0.614774
 1171, 2.222222, 0.629927
 1172, 2.250000, 0.645556
 1173, 2.277778, 0.661184
 1174, 2.305556, 0.676337
 1175, 2.333333, 0.690556
 1176, 2.361111, 0.703406
 1177, 2.388889, 0.714500
 1178, 2.416667, 0.723498
 1179, 2.444444, 0.730128
 1180, 2.472222, 0.734188
 1181, 2.500000, 0.735556
 1182, 2.527778, 0.734188
 1183, 2.555556, 0.730128
 1184, 2.583333, 0.723498
 1185, 2.611111, 0.714500
 1186, 2.638889, 0.703406
 1187, 2.666667, 0.690556
 1188, 2.694444, 0.676337
 1189, 2.722222, 0.661184
 1190, 2.750000, 0.645556
 1191, 2.777778, 0.629927
 1192, 2.805556, 0.614774
 1193, 2.833333, 0.600556
 1194, 2.861111, 0.587705
 1195, 2.888889, 0.576612
 1196, 2.916667, 0.567613
 1197, 2.944444, 0.560983
 1198, 2.972222, 0.556923
 1199, 3.000000, 0.555556
 1200, 0.000000, 0.611111
 1201, 0.027778, 0.612478
 1202, 0.055556, 0.616539
 1203, 0.083333, 0.623169
 1204, 0.111111, 0.632167
 1205, 0.138889, 0.643260
 1206, 0.166667, 0.656111
 1207, 0.194444, 0.670329
 1208, 0.222222, 0.685483
 1209, 0.250000, 0.701111
 1210, 0.277778, 0.716739
 1211, 0.305556, 0.731893
 1212, 0.333333, 0.746111
 1213, 0.361111, 0.758962
 1214, 0.388889, 0.770055
 1215, 0.416667, 0.779053
 1216, 0.444444, 0.785683
 1217, 0.472222, 0.789744
 1218, 0.500000, 0.791111
 1219, 0.527778, 0.789744
 1220, 0.555556, 0.785683
 1221, 0.583333, 0.779053
 1222, 0.611111, 0.770055
 1223, 0.638889, 0.758962
 1224, 0.666667, 0.746111
 1225, 0.694444, 0.731893
 1226, 0.722222, 0.716739
 1227, 0.750000, 0.701111
 1228, 0.777778, 0.685483
 1229, 0.805556, 0.670329
 1230, 0.833333, 0.656111
 1231, 0.861111, 0.643260
 1232, 0.888889, 0.632167
 1233, 0.916667, 0.623169
 1234, 0.944444, 0.616539
 1235, 0.972222, 0.612478
 1236, 1.000000, 0.611111
 1237, 1.027778, 0.612478
 1238, 1.055556, 0.616539
 1239, 1.083333, 0.623169
 1240, 1.111111, 0.632167
 1241, 1.138889, 0.643260
 1242, 1.166667, 0.656111
 1243, 1.194444, 0.670329
 1244, 1.222222, 0.685483
 1245, 1.250000, 0.701111
 1246, 1.277778, 0.716739
 1247, 1.305556, 0.731893
 1248, 1.333333, 0.746111
 1249, 1.361111, 0.758962
 1250, 1.388889, 0.770055
 1251, 1.416667, 0.779053
 1252, 1.444444, 0.785683
 1253, 1.472222, 0.789744
 1254, 1.500000, 0.791111
 1255, 1.527778, 0.789744
 1256, 1.555556, 0.785683
 1257, 1.583333, 0.779053
 1258, 1.611111, 0.770055
 1259, 1.638889, 0.758962
 1260, 1.666667, 0.746111
 1261, 1.694444, 0.731893
 1262, 1.722222, 0.716739
 1263, 1.750000, 0.701111
 1264, 1.777778, 0.685483
 1265, 1.805556, 0.670329
 1266, 1.833333, 0.656111
 1267, 1.861111, 0.643260
 1268, 1.888889, 0.632167
 1269, 1.916667, 0.623169
 1270, 1.944444, 0.616539
 1271, 1.972222, 0.612478
 1272, 2.000000, 0.611111
 1273, 2.027778, 0.612478
 1274, 2.055556, 0.616539
 1275, 2.083333, 0.623169
 1276, 2.111111, 0.632167
 1277, 2.138889, 0.643260
 1278, 2.166667, 0.656111
 1279, 2.194444, 0.670329
 1280, 2.222222, 0.685483
 1281, 2.250000, 0.701111
 1282, 2.277778, 0.716739
 1283, 2.305556, 0.731893
 1284, 2.333333, 0.746111
 1285, 2.361111, 0.758962
 1286, 2.388889, 0.770055
 1287, 2.416667, 0.779053
 1288, 2.444444, 0.785683
 1289, 2.472222, 0.789744
 1290, 2.500000, 0.791111
 1291, 2.527778, 0.789744
 1292, 2.555556, 0.785683
 1293, 2.583333, 0.779053
 1294, 2.611111, 0.770055
 1295, 2.638889, 0.758962
 1296, 2.666667, 0.746111
 1297, 2.694444, 0.731893
 1298, 2.722222, 0.716739
 1299, 2.750000, 0.701111
 1300, 2.777778, 0.685483
 1301, 2.805556, 0.670329
 1302, 2.833333, 0.656111
 1303, 2.861111, 0.643260
 1304, 2.888889, 0.632167
 1305, 2.916667, 0.623169
 1306, 2.944444, 0.616539
 1307, 2.972222, 0.612478
 1308, 3.000000, 0.611111
 1309, 0.000000, 0.666667
 1310, 0.027778, 0.668034
 1311, 0.055556, 0.672094
 1312, 0.083333, 0.678724
 1313, 0.111111, 0.687723
 1314, 0.138889, 0.698816
 1315, 0.166667, 0.711667
 1316, 0.194444, 0.725885
 1317, 0.222222, 0.741038
 1318, 0.250000, 0.756667
 1319, 0.277778, 0.772295
 1320, 0.305556, 0.787448
 1321, 0.333333, 0.801667
 1322, 0.361111, 0.814518
 1323, 0.388889, 0.825611
 1324, 0.416667, 0.834609
 1325, 0.444444, 0.841239
 1326, 0.472222, 0.845299
 1327, 0.500000, 0.846667
 1328, 0.527778, 0.845299
 1329, 0.555556, 0.841239
 1330, 0.583333, 0.834609
 1331, 0.611111, 0.825611
 1332, 0.638889, 0.814518
 1333, 0.666667, 0.801667
 1334, 0.694444, 0.787448
 1335, 0.722222, 0.772295
 1336, 0.750000, 0.756667
 1337, 0.777778, 0.741038
 1338, 0.805556, 0.725885
 1339, 0.833333, 0.711667
 1340, 0.861111, 0.698816
 1341, 0.888889, 0.687723
 1342, 0.916667, 0.678724
 1343, 0.944444, 0.672094
 1344, 0.972222, 0.668034
 1345, 1.000000, 0.666667
 1346, 1.027778, 0.668034
 1347, 1.055556, 0.672094
 1348, 1.083333, 0.678724
 1349, 1.111111, 0.687723
 1350, 1.138889, 0.698816
 1351, 1.166667, 0.711667
 1352, 1.194444, 0.725885
 1353, 1.222222, 0.741038
 1354, 1.250000, 0.756667
 1355, 1.277778, 0.772295
 1356, 1.305556, 0.787448
 1357, 1.333333, 0.801667
 1358, 1.361111, 0.814518
 1359, 1.388889, 0.825611
 1360, 1.416667, 0.834609
 1361, 1.444444, 0.841239
 1362, 1.472222, 0.845299
 1363, 1.500000, 0.846667
 1364, 1.527778, 0.845299
 1365, 1.555556, 0.841239
 1366, 1.583333, 0.834609
 1367, 1.611111, 0.825611
 1368, 1.638889, 0.814518
 1369, 1.666667, 0.801667
 1370, 1.694444, 0.787448
 1371, 1.722222, 0.772295
 1372, 1.750000, 0.756667
 1373, 1.777778, 0.741038
 1374, 1.805556, 0.725885
 1375, 1.833333, 0.711667
 1376, 1.861111, 0.698816
 1377, 1.888889, 0.687723
 1378, 1.916667, 0.678724
 1379, 1.944444, 0.672094
 1380, 1.972222, 0.668034
 1381, 2.000000, 0.666667
 1382, 2.027778, 0.668034
 1383, 2.055556, 0.672094
 1384, 2.083333, 0.678724
 1385, 2.111111, 0.687723
 1386, 2.138889, 0.698816
 1387, 2.166667, 0.711667
 1388, 2.194444, 0.725885
 1389, 2.222222, 0.741038
 1390, 2.250000, 0.756667
 1391, 2.277778, 0.772295
 1392, 2.305556, 0.787448
 1393, 2.333333, 0.801667
 1394, 2.361111, 0.814518
 1395, 2.388889, 0.825611
 1396, 2.416667, 0.834609
 1397, 2.444444, 0.841239
 1398, 2.472222, 0.845299
 1399, 2.500000, 0.846667
 1400, 2.527778, 0.845299
 1401, 2.555556, 0.841239
 1402, 2.583333, 0.834609
 1403, 2.611111, 0.825611
 1404, 2.638889, 0.814518
 1405, 2.666667, 0.801667
 1406, 2.694444, 0.787448
 1407, 2.722222, 0.772295
 1408, 2.750000, 0.756667
 1409, 2.777778, 0.741038
 1410, 2.805556, 0.725885
 1411, 2.833333, 0.711667
 1412, 2.861111, 0.698816
 1413, 2.888889, 0.687723
 1414, 2.916667, 0.678724
 1415, 2.944444, 0.672094
 1416, 2.972222, 0.668034
 1417, 3.000000, 0.666667
 1418, 0.000000, 0.722222
 1419, 0.027778, 0.723590
 1420, 0.055556, 0.727650
 1421, 0.083333, 0.734280
 1422, 0.111111, 0.743278
 1423, 0.138889, 0.754371
 1424, 0.166667, 0.767222
 1425, 0.194444, 0.781440
 1426, 0.222222, 0.796594
 1427, 0.250000, 0.812222
 1428, 0.277778, 0.827851
 1429, 0.305556, 0.843004
 1430, 0.333333, 0.857222
 1431, 0.361111, 0.870073
 1432, 0.388889, 0.881166
 1433, 0.416667, 0.890165
 1434, 0.444444, 0.896795
 1435, 0.472222, 0.900855
 1436, 0.500000, 0.902222
 1437, 0.527778, 0.900855
 1438, 0.555556, 0.896795
 1439, 0.583333, 0.890165
 1440, 0.611111, 0.881166
 1441, 0.638889, 0.870073
 1442, 0.666667, 0.857222
 1443, 0.694444, 0.843004
 1444, 0.722222, 0.827851
 1445, 0.750000, 0.812222
 1446, 0.777778, 0.796594
 1447, 0.805556, 0.781440
 1448, 0.833333, 0.767222
 1449, 0.861111, 0.754371
 1450, 0.888889, 0.743278
 1451, 0.916667, 0.734280
 1452, 0.944444, 0.727650
 1453, 0.972222, 0.723590
 1454, 1.000000, 0.722222
 1455, 1.027778, 0.723590
 1456, 1.055556, 0.727650
 1457, 1.083333, 0.734280
 1458, 1.111111, 0.743278
 1459, 1.138889, 0.754371
 1460, 1.166667, 0.767222
 1461, 1.194444, 0.781440
 1462, 1.222222, 0.796594
 1463, 1.250000, 0.812222
 1464, 1.277778, 0.827851
 1465, 1.305556, 0.843004
 1466, 1.333333, 0.857222
 1467, 1.361111, 0.870073
 1468, 1.388889, 0.881166
 1469, 1.416667, 0.890165
 1470, 1.444444, 0.896795
 1471, 1.472222, 0.900855
 1472, 1.500000, 0.902222
 1473, 1.527778, 0.900855
 1474, 1.555556, 0.896795
 1475, 1.583333, 0.890165
 1476, 1.611111, 0.881166
 1477, 1.638889, 0.870073
 1478, 1.666667, 0.857222
 1479, 1.694444, 0.843004
 1480, 1.722222, 0.827851
 1481, 1.750000, 0.812222
 1482, 1.777778, 0.796594
 1483, 1.805556, 0.781440
 1484, 1.833333, 0.767222
 1485, 1.861111, 0.754371
 1486, 1.888889, 0.743278
 1487, 1.916667, 0.734280
 1488, 1.944444, 0.727650
 1489, 1.972222, 0.723590
 1490, 2.000000, 0.722222
 1491, 2.027778, 0.723590
 1492, 2.055556, 0.727650
 1493, 2.083333, 0.734280
 1494, 2.111111, 0.743278
 1495, 2.138889, 0.754371
 1496, 2.166667, 0.767222
 1497, 2.194444, 0.781440
 1498, 2.222222, 0.796594
 1499, 2.250000, 0.812222
 1500, 2.277778, 0.827851
 1501, 2.305556, 0.843004
 1502, 2.333333, 0.857222
 1503, 2.361111, 0.870073
 1504, 2.388889, 0.881166
 1505, 2.416667, 0.890165
 1506, 2.444444, 0.896795
 1507, 2.472222, 0.900855
 1508, 2.500000, 0.902222
 1509, 2.527778, 0.900855
 1510, 2.555556, 0.896795
 1511, 2.583333, 0.890165
 1512, 2.611111, 0.881166
 1513, 2.638889, 0.870073
 1514, 2.666667, 0.857222
 1515, 2.694444, 0.843004
 1516, 2.722222, 0.827851
 1517, 2.750000, 0.812222
 1518, 2.777778, 0.796594
 1519, 2.805556, 0.781440
 1520, 2.833333, 0.767222
 1521, 2.861111, 0.754371
 1522, 2.888889, 0.743278
 1523, 2.916667, 0.734280
 1524, 2.944444, 0.727650
 1525, 2.972222, 0.723590
 1526, 3.000000, 0.722222
 1527, 0.000000, 0.777778
 1528, 0.027778, 0.779145
 1529, 0.055556, 0.783205
 1530, 0.083333, 0.789835
 1531, 0.111111, 0.798834
 1532, 0.138889, 0.809927
 1533, 0.166667, 0.822778
 1534, 0.194444, 0.836996
 1535, 0.222222, 0.852149
 1536, 0.250000, 0.867778
 1537, 0.277778, 0.883406
 1538, 0.305556, 0.898560
 1539, 0.333333, 0.912778
 1540, 0.361111, 0.925629
 1541, 0.388889, 0.936722
 1542, 0.416667, 0.945720
 1543, 0.444444, 0.952350
 1544, 0.472222, 0.956410
 1545, 0.500000, 0.957778
 1546, 0.527778, 0.956410
 1547, 0.555556, 0.952350
 1548, 0.583333, 0.945720
 1549, 0.611111, 0.936722
 1550, 0.638889, 0.925629
 1551, 0.666667, 0.912778
 1552, 0.694444, 0.898560
 1553, 0.722222, 0.883406
 1554, 0.750000, 0.867778
 1555, 0.777778, 0.852149
 1556, 0.805556, 0.836996
 1557, 0.833333, 0.822778
 1558, 0.861111, 0.809927
 1559, 0.888889, 0.798834
 1560, 0.916667, 0.789835
 1561, 0.944444, 0.783205
 1562, 0.972222, 0.779145
 1563, 1.000000, 0.777778
 1564, 1.027778, 0.779145
 1565, 1.055556, 0.783205
 1566, 1.083333, 0.789835
 1567, 1.111111, 0.798834
 1568, 1.138889, 0.809927
 1569, 1.166667, 0.822778
 1570, 1.194444, 0.836996
 1571, 1.222222, 0.852149
 1572, 1.250000, 0.867778
 1573, 1.277778, 0.883406
 1574, 1.305556, 0.898560
 1575, 1.333333, 0.912778
 1576, 1.361111, 0.925629
 1577, 1.388889, 0.936722
 1578, 1.416667, 0.945720
 1579, 1.444444, 0.952350
 1580, 1.472222, 0.956410
 1581, 1.500000, 0.957778
 1582, 1.527778, 0.956410
 1583, 1.555556, 0.952350
 1584, 1.583333, 0.945720
 1585, 1.611111, 0.936722
 1586, 1.638889, 0.925629
 1587, 1.666667, 0.912778
 1588, 1.694444, 0.898560
 1589, 1.722222, 0.883406
 1590, 1.750000, 0.867778
 1591, 1.777778, 0.852149
 1592, 1.805556, 0.836996
 1593, 1.833333, 0.822778
 1594, 1.861111, 0.809927
 1595, 1.888889, 0.798834
 1596, 1.916667, 0.789835
 1597, 1.944444, 0.783205
 1598, 1.972222, 0.779145
 1599, 2.000000, 0.777778
 1600, 2.027778, 0.779145
 1601, 2.055556, 0.783205
 1602, 2.083333, 0.789835
 1603, 2.111111, 0.798834
 1604, 2.138889, 0.809927
 1605, 2.166667, 0.822778
 1606, 2.194444, 0.836996
 1607, 2.222222, 0.852149
 1608, 2.250000, 0.867778
 1609, 2.277778, 0.883406
 1610, 2.305556, 0.898560
 1611, 2.333333, 0.912778
 1612, 2.361111, 0.925629
 1613, 2.388889, 0.936722
 1614, 2.416667, 0.945720
 1615, 2.444444, 0.952350
 1616, 2.472222, 0.956410
 1617, 2.500000, 0.957778
 1618, 2.527778, 0.956410
 1619, 2.555556, 0.952350
 1620, 2.583333, 0.945720
 1621, 2.611111, 0.936722
 1622, 2.638889, 0.925629
 1623, 2.666667, 0.912778
 1624, 2.694444, 0.898560
 1625, 2.722222, 0.883406
 1626, 2.750000, 0.867778
 1627, 2.777778, 0.852149
 1628, 2.805556, 0.836996
 1629, 2.833333, 0.822778
 1630, 2.861111, 0.809927
 1631, 2.888889, 0.798834
 1632, 2.916667, 0.789835
 1633, 2.944444, 0.783205
 1634, 2.972222, 0.779145
 1635, 3.000000, 0.777778
 1636, 0.000000, 0.833333
 1637, 0.027778, 0.834701
 1638, 0.055556, 0.838761
 1639, 0.083333, 0.845391
 1640, 0.111111, 0.854389
 1641, 0.138889, 0.865482
 1642, 0.166667, 0.878333
 1643, 0.194444, 0.892552
 1644, 0.222222, 0.907705
 1645, 0.250000, 0.923333
 1646, 0.277778, 0.938962
 1647, 0.305556, 0.954115
 1648, 0.333333, 0.968333
 1649, 0.361111, 0.981184
 1650, 0.388889, 0.992277
 1651, 0.416667, 1.001276
 1652, 0.444444, 1.007906
 1653, 0.472222, 1.011966
 1654, 0.500000, 1.013333
 1655, 0.527778, 1.011966
 1656, 0.555556, 1.007906
 1657, 0.583333, 1.001276
 1658, 0.611111, 0.992277
 1659, 0.638889, 0.981184
 1660, 0.666667, 0.968333
 1661, 0.694444, 0.954115
 1662, 0.722222, 0.938962
 1663, 0.750000, 0.923333
 1664, 0.777778, 0.907705
 1665, 0.805556, 0.892552
 1666, 0.833333, 0.878333
 1667, 0.861111, 0.865482
 1668, 0.888889, 0.854389
 1669, 0.916667, 0.845391
 1670, 0.944444, 0.838761
 1671, 0.972222, 0.834701
 1672, 1.000000, 0.833333
 1673, 1.027778, 0.834701
 1674, 1.055556, 0.838761
 1675, 1.083333, 0.845391
 1676, 1.111111, 0.854389
 1677, 1.138889, 0.865482
 1678, 1.166667, 0.878333
 1679, 1.194444, 0.892552
 1680, 1.222222, 0.907705
 1681, 1.250000, 0.923333
 1682, 1.277778, 0.938962
 1683, 1.305556, 0.954115
 1684, 1.333333, 0.968333
 1685, 1.361111, 0.981184
 1686, 1.388889, 0.992277
 1687, 1.416667, 1.001276
 1688, 1.444444, 1.007906
 1689, 1.472222, 1.011966
 1690, 1.500000, 1.013333
 1691, 1.527778, 1.011966
 1692, 1.555556, 1.007906
 1693, 1.583333, 1.001276
 1694, 1.611111, 0.992277
 1695, 1.638889, 0.981184
 1696, 1.666667, 0.968333
 1697, 1.694444, 0.954115
 1698, 1.722222, 0.938962
 1699, 1.750000, 0.923333
 1700, 1.777778, 0.907705
 1701, 1.805556, 0.892552
 1702, 1.833333, 0.878333
 1703, 1.861111, 0.865482
 1704, 1.888889, 0.854389
 1705, 1.916667, 0.845391
 1706, 1.944444, 0.838761
 1707, 1.972222, 0.834701
 1708, 2.000000, 0.833333
 1709, 2.027778, 0.834701
 1710, 2.055556, 0.838761
 1711, 2.083333, 0.845391
 1712, 2.111111, 0.854389
 1713, 2.138889, 0.865482
 1714, 2.166667, 0.878333
 1715, 2.194444, 0.892552
 1716, 2.222222, 0.907705
 1717, 2.250000, 0.923333
 1718, 2.277778, 0.938962
 1719, 2.305556, 0.954115
 1720, 2.333333, 0.968333
 1721, 2.361111, 0.981184
 1722, 2.388889, 0.992277
 1723, 2.416667, 1.001276
 1724, 2.444444, 1.007906
 1725, 2.472222, 1.011966
 1726, 2.500000, 1.013333
 1727, 2.527778, 1.011966
 1728, 2.555556, 1.007906
 1729, 2.583333, 1.001276
 1730, 2.611111, 0.992277
 1731, 2.638889, 0.981184
 1732, 2.666667, 0.968333
 1733, 2.694444, 0.954115
 1734, 2.722222, 0.938962
 1735, 2.750000, 0.923333
 1736, 2.777778, 0.907705
 1737, 2.805556, 0.892552
 1738, 2.833333, 0.878333
 1739, 2.861111, 0.865482
 1740, 2.888889, 0.854389
 1741, 2.916667, 0.845391
 1742, 2.944444, 0.838761
 1743, 2.972222, 0.834701
 1744, 3.000000, 0.833333
 1745, 0.000000, 0.888889
 1746, 0.027778, 0.890256
 1747, 0.055556, 0.894317
 1748, 0.083333, 0.900947
 1749, 0.111111, 0.909945
 1750, 0.138889, 0.921038
 1751, 0.166667, 0.933889
 1752, 0.194444, 0.948107
 1753, 0.222222, 0.963261
 1754, 0.250000, 0.978889
 1755, 0.277778, 0.994517
 1756, 0.305556, 1.009671
 1757, 0.333333, 1.023889
 1758, 0.361111, 1.036740
 1759, 0.388889, 1.047833
 1760, 0.416667, 1.056831
 1761, 0.444444, 1.063461
 1762, 0.472222, 1.067522
 1763, 0.500000, 1.068889
 1764, 0.527778, 1.067522
 1765, 0.555556, 1.063461
 1766, 0.583333, 1.056831
 1767, 0.611111, 1.047833
 1768, 0.638889, 1.036740
 1769, 0.666667, 1.023889
 1770, 0.694444, 1.009671
 1771, 0.722222, 0.994517
 1772, 0.750000, 0.978889
 1773, 0.777778, 0.963261
 1774, 0.805556, 0.948107
 1775, 0.833333, 0.933889
 1776, 0.861111, 0.921038
 1777, 0.888889, 0.909945
 1778, 0.916667, 0.900947
 1779, 0.944444, 0.894317
 1780, 0.972222, 0.890256
 1781, 1.000000, 0.888889
 1782, 1.027778, 0.890256
 1783, 1.055556, 0.894317
 1784, 1.083333, 0.900947
 1785, 1.111111, 0.909945
 1786, 1.138889, 0.921038
 1787, 1.166667, 0.933889
 1788, 1.194444, 0.948107
 1789, 1.222222, 0.963261
 1790, 1.250000, 0.978889
 1791, 1.277778, 0.994517
 1792, 1.305556, 1.009671
 1793, 1.333333, 1.023889
 1794, 1.361111, 1.036740
 1795, 1.388889, 1.047833
 1796, 1.416667, 1.056831
 1797, 1.444444, 1.063461
 1798, 1.472222, 1.067522
 1799, 1.500000, 1.068889
 1800, 1.527778, 1.067522
 1801, 1.555556, 1.063461
 1802, 1.583333, 1.056831
 1803, 1.611111, 1.047833
 1804, 1.638889, 1.036740
 1805, 1.666667, 1.023889
 1806, 1.694444, 1.009671
 1807, 1.722222, 0.994517
 1808, 1.750000, 0.978889
 1809, 1.777778, 0.963261
 1810, 1.805556, 0.948107
 1811, 1.833333, 0.933889
 1812, 1.861111, 0.921038
 1813, 1.888889, 0.909945
 1814, 1.916667, 0.900947
 1815, 1.944444, 0.894317
 1816, 1.972222, 0.890256
 1817, 2.000000, 0.888889
 1818, 2.027778, 0.890256
 1819, 2.055556, 0.894317
 1820, 2.083333, 0.900947
 1821, 2.111111, 0.909945
 1822, 2.138889, 0.921038
 1823, 2.166667, 0.933889
 1824, 2.194444, 0.948107
 1825, 2.222222, 0.963261
 1826, 2.250000, 0.978889
 1827, 2.277778, 0.994517
 1828, 2.305556, 1.009671
 1829, 2.333333, 1.023889
 1830, 2.361111, 1.036740
 1831, 2.388889, 1.047833
 1832, 2.416667, 1.056831
 1833, 2.444444, 1.063461
 1834, 2.472222, 1.067522
 1835, 2.500000, 1.068889
 1836, 2.527778, 1.067522
 1837, 2.555556, 1.063461
 1838, 2.583333, 1.056831
 1839, 2.611111, 1.047833
 1840, 2.638889, 1.036740
 1841, 2.666667, 1.023889
 1842, 2.694444, 1.009671
 1843, 2.722222, 0.994517
 1844, 2.750000, 0.978889
 1845, 2.777778, 0.963261
 1846, 2.805556, 0.948107
 1847, 2.833333, 0.933889
 1848, 2.861111, 0.921038
 1849, 2.888889, 0.909945
 1850, 2.916667, 0.900947
 1851, 2.944444, 0.894317
 1852, 2.972222, 0.890256
 1853, 3.000000, 0.888889
 1854, 0.000000, 0.944444
 1855, 0.027778, 0.945812
 1856, 0.055556, 0.949872
 1857, 0.083333, 0.956502
 1858, 0.111111, 0.965500
 1859, 0.138889, 0.976594
 1860, 0.166667, 0.989444
 1861, 0.194444, 1.003663
 1862, 0.222222, 1.018816
 1863, 0.250000, 1.034444
 1864, 0.277778, 1.050073
 1865, 0.305556, 1.065226
 1866, 0.333333, 1.079444
 1867, 0.361111, 1.092295
 1868, 0.388889, 1.103388
 1869, 0.416667, 1.112387
 1870, 0.444444, 1.119017
 1871, 0.472222, 1.123077
 1872, 0.500000, 1.124444
 1873, 0.527778, 1.123077
 1874, 0.555556, 1.119017
 1875, 0.583333, 1.112387
 1876, 0.611111, 1.103388
 1877, 0.638889, 1.092295
 1878, 0.666667, 1.079444
 1879, 0.694444, 1.065226
 1880, 0.722222, 1.050073
 1881, 0.750000, 1.034444
 1882, 0.777778, 1.018816
 1883, 0.805556, 1.003663
 1884, 0.833333, 0.989444
 1885, 0.861111, 0.976594
 1886, 0.888889, 0.965500
 1887, 0.916667, 0.956502
 1888, 0.944444, 0.949872
 1889, 0.972222, 0.945812
 1890, 1.000000, 0.944444
 1891, 1.027778, 0.945812
 1892, 1.055556, 0.949872
 1893, 1.083333, 0.956502
 1894, 1.111111, 0.965500
 1895, 1.138889, 0.976594
 1896, 1.166667, 0.989444
 1897, 1.194444, 1.003663
 1898, 1.222222, 1.018816
 1899, 1.250000, 1.034444
 1900, 1.277778, 1.050073
 1901, 1.305556, 1.065226
 1902, 1.333333, 1.079444
 1903, 1.361111, 1.092295
 1904, 1.388889, 1.103388
 1905, 1.416667, 1.112387
 1906, 1.444444, 1.119017
 1907, 1.472222, 1.123077
 1908, 1.500000, 1.124444
 1909, 1.527778, 1.123077
 1910, 1.555556, 1.119017
 1911, 1.583333, 1.112387
 1912, 1.611111, 1.103388
 1913, 1.638889, 1.092295
 1914, 1.666667, 1.079444
 1915, 1.694444, 1.065226
 1916, 1.722222, 1.050073
 1917, 1.750000, 1.034444
 1918, 1.777778, 1.018816
 1919, 1.805556, 1.003663
 1920, 1.833333, 0.989444
 1921, 1.861111, 0.976594
 1922, 1.888889, 0.965500
 1923, 1.916667, 0.956502
 1924, 1.944444, 0.949872
 1925, 1.972222, 0.945812
 1926, 2.000000, 0.944444
 1927, 2.027778, 0.945812
 1928, 2.055556, 0.949872
 1929, 2.083333, 0.956502
 1930, 2.111111, 0.965500
 1931, 2.138889, 0.976594
 1932, 2.166667, 0.989444
 1933, 2.194444, 1.003663
 1934, 2.222222, 1.018816
 1935, 2.250000, 1.034444
 1936, 2.277778, 1.050073
 1937, 2.305556, 1.065226
 1938, 2.333333, 1.079444
 1939, 2.361111, 1.092295
 1940, 2.388889, 1.103388
 1941, 2.416667, 1.112387
 1942, 2.444444, 1.119017
 1943, 2.472222, 1.123077
 1944, 2.500000, 1.124444
 1945, 2.527778, 1.123077
 1946, 2.555556, 1.119017
 1947, 2.583333, 1.112387
 1948, 2.611111, 1.103388
 1949, 2.638889, 1.092295
 1950, 2.666667, 1.079444
 1951, 2.694444, 1.065226
 1952, 2.722222, 1.050073
 1953, 2.750000, 1.034444
 1954, 2.777778, 1.018816
 1955, 2.805556, 1.003663
 1956, 2.833333, 0.989444
 1957, 2.861111, 0.976594
 1958, 2.888889, 0.965500
 1959, 2.916667, 0.956502
 1960, 2.944444, 0.949872
 1961, 2.972222, 0.945812
 1962, 3.000000, 0.944444
 1963, 0.000000, 1.000000
 1964, 0.027778, 1.001367
 1965, 0.055556, 1.005428
 1966, 0.083333, 1.012058
 1967, 0.111111, 1.021056
 1968, 0.138889, 1.032149
 1969, 0.166667, 1.045000
 1970, 0.194444, 1.059218
 1971, 0.222222, 1.074372
 1972, 0.250000, 1.090000
 1973, 0.277778, 1.105628
 1974, 0.305556, 1.120782
 1975, 0.333333, 1.135000
 1976, 0.361111, 1.147851
 1977, 0.388889, 1.158944
 1978, 0.416667, 1.167942
 1979, 0.444444, 1.174572
 1980, 0.472222, 1.178633
 1981, 0.500000, 1.180000
 1982, 0.527778, 1.178633
 1983, 0.555556, 1.174572
 1984, 0.583333, 1.167942
 1985, 0.611111, 1.158944
 1986, 0.638889, 1.147851
 1987, 0.666667, 1.135000
 1988, 0.694444, 1.120782
 1989, 0.722222, 1.105628
 1990, 0.750000, 1.090000
 1991, 0.777778, 1.074372
 1992, 0.805556, 1.059218
 1993, 0.833333, 1.045000
 1994, 0.861111, 1.032149
 1995, 0.888889, 1.021056
 1996, 0.916667, 1.012058
 1997, 0.944444, 1.005428
 1998, 0.972222, 1.001367
 1999, 1.000000, 1.000000
 2000, 1.027778, 1.001367
 2001, 1.055556, 1.005428
 2002, 1.083333, 1.012058
 2003, 1.111111, 1.021056
 2004, 1.138889, 1.032149
 2005, 1.166667, 1.045000
 2006, 1.194444, 1.059218
 2007, 1.222222, 1.074372
 2008, 1.250000, 1.090000
 2009, 1.277778, 1.105628
 2010, 1.305556, 1.120782
 2011, 1.333333, 1.135000
 2012, 1.361111, 1.147851
 2013, 1.388889, 1.158944
 2014, 1.416667, 1.167942
 2015, 1.444444, 1.174572
 2016, 1.472222, 1.178633
 2017, 1.500000, 1.180000
 2018, 1.527778, 1.178633
 2019, 1.555556, 1.174572
 2020, 1.583333, 1.167942
 2021, 1.611111, 1.158944
 2022, 1.638889, 1.147851
 2023, 1.666667, 1.135000
 2024, 1.694444, 1.120782
 2025, 1.722222, 1.105628
 2026, 1.750000, 1.090000
 2027, 1.777778, 1.074372
 2028, 1.805556, 1.059218
 2029, 1.833333, 1.045000
 2030, 1.861111, 1.032149
 2031, 1.888889, 1.021056
 2032, 1.916667, 1.012058
 2033, 1.944444, 1.005428
 2034, 1.972222, 1.001367
 2035, 2.000000, 1.000000
 2036, 2.027778, 1.001367
 2037, 2.055556, 1.005428
 2038, 2.083333, 1.012058
 2039, 2.111111, 1.021056
 2040, 2.138889, 1.032149
 2041, 2.166667, 1.045000
 2042, 2.194444, 1.059218
 2043, 2.222222, 1.074372
 2044, 2.250000, 1.090000
 2045, 2.277778, 1.105628
 2046, 2.305556, 1.120782
 2047, 2.333333, 1.135000
 2048, 2.361111, 1.147851
 2049, 2.388889, 1.158944
 2050, 2.416667, 1.167942
 2051, 2.444444, 1.174572
 2052, 2.472222, 1.178633
 2053, 2.500000, 1.180000
 2054, 2.527778, 1.178633
 2055, 2.555556, 1.174572
 2056, 2.583333, 1.167942
 2057, 2.611111, 1.158944
 2058, 2.638889, 1.147851
 2059, 2.666667, 1.135000
 2060, 2.694444, 1.120782
 2061, 2.722222, 1.105628
 2062, 2.750000, 1.090000
 2063, 2.777778, 1.074372
 2064, 2.805556, 1.059218
 2065, 2.833333, 1.045000
 2066, 2.861111, 1.032149
 2067, 2.888889, 1.021056
 2068, 2.916667, 1.012058
 2069, 2.944444, 1.005428
 2070, 2.972222, 1.001367
 2071, 3.000000, 1.000000
*ELEMENT, TYPE=CPE4
 1, 1, 2, 111, 110
 2, 2, 3, 112, 111
 3, 3, 4, 113, 112
 4, 4, 5, 114, 113
 5, 5, 6, 115, 114
 6, 6, 7, 116, 115
 7, 7, 8, 117, 116
 8, 8, 9, 118, 117
 9, 9, 10, 119, 118
 10, 10, 11, 120, 119
 11, 11, 12, 121, 120
 12, 12, 13, 122, 121
 13, 13, 14, 123, 122
 14, 14, 15, 124, 123
 15, 15, 16, 125, 124
 16, 16, 17, 126, 125
 17, 17, 18, 127, 126
 18, 18, 19, 128, 127
 19, 19, 20, 129, 128
 20, 20, 21, 130, 129
 21, 21, 22, 131, 130
 22, 22, 23, 132, 131
 23, 23, 24, 133, 132
 24, 24, 25, 134, 133
 25, 25, 26, 135, 134
 26, 26, 27, 136, 135
 27, 27, 28, 137, 136
 28, 28, 29, 138, 137
 29, 29, 30, 139, 138
 30, 30, 31, 140, 139
 31, 31, 32, 141, 140
 32, 32, 33, 142, 141
 33, 33, 34, 143, 142
 34, 34, 35, 144, 143
 35, 35, 36, 145, 144
 36, 36, 37, 146, 145
 37, 37, 38, 147, 146
 38, 38, 39, 148, 147
 39, 39, 40, 149, 148
 40, 40, 41, 150, 149
 41, 41, 42, 151, 150
 42, 42, 43, 152, 151
 43, 43, 44, 153, 152
 44, 44, 45, 154, 153
 45, 45, 46, 155, 154
 46, 46, 47, 156, 155
 47, 47, 48, 157, 156
 48, 48, 49, 158, 157
 49, 49, 50, 159, 158
 50, 50, 51, 160, 159
 51, 51, 52, 161, 160
 52, 52, 53, 162, 161
 53, 53, 54, 163, 162
 54, 54, 55, 164, 163
 55, 55, 56, 165, 164
 56, 56, 57, 166, 165
 57, 57, 58, 167, 166
 58, 58, 59, 168, 167
 59, 59, 60, 169, 168
 60, 60, 61, 170, 169
 61, 61, 62, 171, 170
 62, 62, 63, 172, 171
 63, 63, 64, 173, 172
 64, 64, 65, 174, 173
 65, 65, 66, 175, 174
 66, 66, 67, 176, 175
 67, 67, 68, 177, 176
 68, 68, 69, 178, 177
 69, 69, 70, 179, 178
 70, 70, 71, 180, 179
 71, 71, 72, 181, 180
 72, 72, 73, 182, 181
 73, 73, 74, 183, 182
 74, 74, 75, 184, 183
 75, 75, 76, 185, 184
 76, 76, 77, 186, 185
 77, 77, 78, 187, 186
 78, 78, 79, 188, 187
 79, 79, 80, 189, 188
 80, 80, 81, 190, 189
 81, 81, 82, 191, 190
 82, 82, 83, 192, 191
 83, 83, 84, 193, 192
 84, 84, 85, 194, 193
 85, 85, 86, 195, 194
 86, 86, 87, 196, 195
 87, 87, 88, 197, 196
 88, 88, 89, 198, 197
 89, 89, 90, 199, 198
 90, 90, 91, 200, 199
 91, 91, 92, 201, 200
 92, 92, 93, 202, 201
 93, 93, 94, 203, 202
 94, 94, 95, 204, 203
 95, 95, 96, 205, 204
 96, 96, 97, 206, 205
 97, 97, 98, 207, 206
 98, 98, 99, 208, 207
 99, 99, 100, 209, 208
 100, 100, 101, 210, 209
 101, 101, 102, 211, 210
 102, 102, 103, 212, 211
 103, 103, 104, 213, 212
 104, 104, 105, 214, 213
 105, 105, 106, 215, 214
 106, 106, 107, 216, 215
 107, 107, 108, 217, 216
 108, 108, 109, 218, 217
 109, 110, 111, 220, 219
 110, 111, 112, 221, 220
 111, 112, 113, 222, 221
 112, 113, 114, 223, 222
 113, 114, 115, 224, 223
 114, 115, 116, 225, 224
 115, 116, 117, 226, 225
 116, 117, 118, 227, 226
 117, 118, 119, 228, 227
 118, 119, 120, 229, 228
 119, 120, 121, 230, 229
 120, 121, 122, 231, 230
 121, 122, 123, 232, 231
 122, 123, 124, 233, 232
 123, 124, 125, 234, 233
 124, 125, 126, 235, 234
 125, 126, 127, 236, 235
 126, 127, 128, 237, 236
 127, 128, 129, 238, 237
 128, 129, 130, 239, 238
 129, 130, 131, 240, 239
 130, 131, 132, 241, 240
 131, 132, 133, 242, 241
 132, 133, 134, 243, 242
 133, 134, 135, 244, 243
 134, 135, 136, 245, 244
 135, 136, 137, 246, 245
 136, 137, 138, 247, 246
 137, 138, 139, 248, 247
 138, 139, 140, 249, 248
 139, 140, 141, 250, 249
 140, 141, 142, 251, 250
 141, 142, 143, 252, 251
 142, 143, 144, 253, 252
 143, 144, 145, 254, 253
 144, 145, 146, 255, 254
 145, 146, 147, 256, 255
 146, 147, 148, 257, 256
 147, 148, 149, 258, 257
 148, 149, 150, 259, 258
 149, 150, 151, 260, 259
 150, 151, 152, 261, 260
 151, 152, 153, 262, 261
 152, 153, 154, 263, 262
 153, 154, 155, 264, 263
 154, 155, 156, 265, 264
 155, 156, 157, 266, 265
 156, 157, 158, 267, 266
 157, 158, 159, 268, 267
 158, 159, 160, 269, 268
 159, 160, 161, 270, 269
 160, 161, 162, 271, 270
 161, 162, 163, 272, 271
 162, 163, 164, 273, 272
 163, 164, 165, 274, 273
 164, 165, 166, 275, 274
 165, 166, 167, 276, 275
 166, 167, 168, 277, 276
 167, 168, 169, 278, 277
 168, 169, 170, 279, 278
 169, 170, 171, 280, 279
 170, 171, 172, 281, 280
 171, 172, 173, 282, 281
 172, 173, 174, 283, 282
 173, 174, 175, 284, 283
 174, 175, 176, 285, 284
 175, 176, 177, 286, 285
 176, 177, 178, 287, 286
 177, 178, 179, 288, 287
 178, 179, 180, 289, 288
 179, 180, 181, 290, 289
 180, 181, 182, 291, 290
 181, 182, 183, 292, 291
 182, 183, 184, 293, 292
 183, 184, 185, 294, 293
 184, 185, 186, 295, 294
 185, 186, 187, 296, 295
 186, 187, 188, 297, 296
 187, 188, 189, 298, 297
 188, 189, 190, 299, 298
 189, 190, 191, 300, 299
 190, 191, 192, 301, 300
 191, 192, 193, 302, 301
 192, 193, 194, 303, 302
 193, 194, 195, 304, 303
 194, 195, 196, 305, 304
 195, 196, 197, 306, 305
 196, 197, 198, 307, 306
 197, 198, 199, 308, 307
 198, 199, 200, 309, 308
 199, 200, 201, 310, 309
 200, 201, 202, 311, 310
 201, 202, 203, 312, 311
 202, 203, 204, 313, 312
 203, 204, 205, 314, 313
 204, 205, 206, 315, 314
 205, 206, 207, 316, 315
 206, 207, 208, 317, 316
 207, 208, 209, 318, 317
 208, 209, 210, 319, 318
 209, 210, 211, 320, 319
 210, 211, 212, 321, 320
 211, 212, 213, 322, 321
 212, 213, 214, 323, 322
 213, 214, 215, 324, 323
 214, 215, 216, 325, 324
 215, 216, 217, 326, 325
 216, 217, 218, 327, 326
 217, 219, 220, 329, 328
 218, 220, 221, 330, 329
 219, 221, 222, 331, 330
 220, 222, 223, 332, 331
 221, 223, 224, 333, 332
 222, 224, 225, 334, 333
 223, 225, 226, 335, 334
 224, 226, 227, 336, 335
 225, 227, 228, 337, 336
 226, 228, 229, 338, 337
 227, 229, 230, 339, 338
 228, 230, 231, 340, 339
 229, 231, 232, 341, 340
 230, 232, 233, 342, 341
 231, 233, 234, 343, 342
 232, 234, 235, 344, 343
 233, 235, 236, 345, 344
 234, 236, 237, 346, 345
 235, 237, 238, 347, 346
 236, 238, 239, 348, 347
 237, 239, 240, 349, 348
 238, 240, 241, 350, 349
 239, 241, 242, 351, 350
 240, 242, 243, 352, 351
 241, 243, 244, 353, 352
 242, 244, 245, 354, 353
 243, 245, 246, 355, 354
 244, 246, 247, 356, 355
 245, 247, 248, 357, 356
 246, 248, 249, 358, 357
 247, 249, 250, 359, 358
 248, 250, 251, 360, 359
 249, 251, 252, 361, 360
 250, 252, 253, 362, 361
 251, 253, 254, 363, 362
 252, 254, 255, 364, 363
 253, 255, 256, 365, 364
 254, 256, 257, 366, 365
 255, 257, 258, 367, 366
 256, 258, 259, 368, 367
 257, 259, 260, 369, 368
 258, 260, 261, 370, 369
 259, 261, 262, 371, 370
 260, 262, 263, 372, 371
 261, 263, 264, 373, 372
 262, 264, 265, 374, 373
 263, 265, 266, 375, 374
 264, 266, 267, 376, 375
 265, 267, 268, 377, 376
 266, 268, 269, 378, 377
 267, 269, 270, 379, 378
 268, 270, 271, 380, 379
 269, 271, 272, 381, 380
 270, 272, 273, 382, 381
 271, 273, 274, 383, 382
 272, 274, 275, 384, 383
 273, 275, 276, 385, 384
 274, 276, 277, 386, 385
 275, 277, 278, 387, 386
 276, 278, 279, 388, 387
 277, 279, 280, 389, 388
 278, 280, 281, 390, 389
 279, 281, 282, 391, 390
 280, 282, 283, 392, 391
 281, 283, 284, 393, 392
 282, 284, 285, 394, 393
 283, 285, 286, 395, 394
 284, 286, 287, 396, 395
 285, 287, 288, 397, 396
 286, 288, 289, 398, 397
 287, 289, 290, 399, 398
 288, 290, 291, 400, 399
 289, 291, 292, 401, 400
 290, 292, 293, 402, 401
 291, 293, 294, 403, 402
 292, 294, 295, 404, 403
 293, 295, 296, 405, 404
 294, 296, 297, 406, 405
 295, 297, 298, 407, 406
 296, 298, 299, 408, 407
 297, 299, 300, 409, 408
 298, 300, 301, 410, 409
 299, 301, 302, 411, 410
 300, 302, 303, 412, 411
 301, 303, 304, 413, 412
 302, 304, 305, 414, 413
 303, 305, 306, 415, 414
 304, 306, 307, 416, 415
 305, 307, 308, 417, 416
 306, 308, 309, 418, 417
 307, 309, 310, 419, 418
 308, 310, 311, 420, 419
 309, 311, 312, 421, 420
 310, 312, 313, 422, 421
 311, 313, 314, 423, 422
 312, 314, 315, 424, 423
 313, 315, 316, 425, 424
 314, 316, 317, 426, 425
 315, 317, 318, 427, 426
 316, 318, 319, 428, 427
 317, 319, 320, 429, 428
 318, 320, 321, 430, 429
 319, 321, 322, 431, 430
 320, 322, 323, 432, 431
 321, 323, 324, 433, 432
 322, 324, 325, 434, 433
 323, 325, 326, 435, 434
 324, 326, 327, 436, 435
 325, 328, 329, 438, 437
 326, 329, 330, 439, 438
 327, 330, 331, 440, 439
 328, 331, 332, 441, 440
 329, 332, 333, 442, 441
 330, 333, 334, 443, 442
 331, 334, 335, 444, 443
 332, 335, 336, 445, 444
 333, 336, 337, 446, 445
 334, 337, 338, 447, 446
 335, 338, 339, 448, 447
 336, 339, 340, 449, 448
 337, 340, 341, 450, 449
 338, 341, 342, 451, 450
 339, 342, 343, 452, 451
 340, 343, 344, 453, 452
 341, 344, 345, 454, 453
 342, 345, 346, 455, 454
 343, 346, 347, 456, 455
 344, 347, 348, 457, 456
 345, 348, 349, 458, 457
 346, 349, 350, 459, 458
 347, 350, 351, 460, 459
 348, 351, 352, 461, 460
 349, 352, 353, 462, 461
 350, 353, 354, 463, 462
 351, 354, 355, 464, 463
 352, 355, 356, 465, 464
 353, 356, 357, 466, 465
 354, 357, 358, 467, 466
 355, 358, 359, 468, 467
 356, 359, 360, 469, 468
 357, 360, 361, 470, 469
 358, 361, 362, 471, 470
 359, 362, 363, 472, 471
 360, 363, 364, 473, 472
 361, 364, 365, 474, 473
 362, 365, 366, 475, 474
 363, 366, 367, 476, 475
 364, 367, 368, 477, 476
 365, 368, 369, 478, 477
 366, 369, 370, 479, 478
 367, 370, 371, 480, 479
 368, 371, 372, 481, 480
 369, 372, 373, 482, 481
 370, 373, 374, 483, 482
 371, 374, 375, 484, 483
 372, 375, 376, 485, 484
 373, 376, 377, 486, 485
 374, 377, 378, 487, 486
 375, 378, 379, 488, 487
 376, 379, 380, 489, 488
 377, 380, 381, 490, 489
 378, 381, 382, 491, 490
 379, 382, 383, 492, 491
 380, 383, 384, 493, 492
 381, 384, 385, 494, 493
 382, 385, 386, 495, 494
 383, 386, 387, 496, 495
 384, 387, 388, 497, 496
 385, 388, 389, 498, 497
 386, 389, 390, 499, 498
 387, 390, 391, 500, 499
 388, 391, 392, 501, 500
 389, 392, 393, 502, 501
 390, 393, 394, 503, 502
 391, 394, 395, 504, 503
 392, 395, 396, 505, 504
 393, 396, 397, 506, 505
 394, 397, 398, 507, 506
 395, 398, 399, 508, 507
 396, 399, 400, 509, 508
 397, 400, 401, 510, 509
 398, 401, 402, 511, 510
 399, 402, 403, 512, 511
 400, 403, 404, 513, 512
 401, 404, 405, 514, 513
 402, 405, 406, 515, 514
 403, 406, 407, 516, 515
 404, 407, 408, 517, 516
 405, 408, 409, 518, 517
 406, 409, 410, 519, 518
 407, 410, 411, 520, 519
 408, 411, 412, 521, 520
 409, 412, 413, 522, 521
 410, 413, 414, 523, 522
 411, 414, 415, 524, 523
 412, 415, 416, 525, 524
 413, 416, 417, 526, 525
 414, 417, 418, 527, 526
 415, 418, 419, 528, 527
 416, 419, 420, 529, 528
 417, 420, 421, 530, 529
 418, 421, 422, 531, 530
 419, 422, 423, 532, 531
 420, 423, 424, 533, 532
 421, 424, 425, 534, 533
 422, 425, 426, 535, 534
 423, 426, 427, 536, 535
 424, 427, 428, 537, 536
 425, 428, 429, 538, 537
 426, 429, 430, 539, 538
 427, 430, 431, 540, 539
 428, 431, 432, 541, 540
 429, 432, 433, 542, 541
 430, 433, 434, 543, 542
 431, 434, 435, 544, 543
 432, 435, 436, 545, 544
 433, 437, 438, 547, 546
 434, 438, 439, 548, 547
 435, 439, 440, 549, 548
 436, 440, 441, 550, 549
 437, 441, 442, 551, 550
 438, 442, 443, 552, 551
 439, 443, 444, 553, 552
 440, 444, 445, 554, 553
 441, 445, 446, 555, 554
 442, 446, 447, 556, 555
 443, 447, 448, 557, 556
 444, 448, 449, 558, 557
 445, 449, 450, 559, 558
 446, 450, 451, 560, 559
 447, 451, 452, 561, 560
 448, 452, 453, 562, 561
 449, 453, 454, 563, 562
 450, 454, 455, 564, 563
 451, 455, 456, 565, 564
 452, 456, 457, 566, 565
 453, 457, 458, 567, 566
 454, 458, 459, 568, 567
 455, 459, 460, 569, 568
 456, 460, 461, 570, 569
 457, 461, 462, 571, 570
 458, 462, 463, 572, 571
 459, 463, 464, 573, 572
 460, 464, 465, 574, 573
 461, 465, 466, 575, 574
 462, 466, 467, 576, 575
 463, 467, 468, 577, 576
 464, 468, 469, 578, 577
 465, 469, 470, 579, 578
 466, 470, 471, 580, 579
 467, 471, 472, 581, 580
 468, 472, 473, 582, 581
 469, 473, 474, 583, 582
 470, 474, 475, 584, 583
 471, 475, 476, 585, 584
 472, 476, 477, 586, 585
 473, 477, 478, 587, 586
 474, 478, 479, 588, 587
 475, 479, 480, 589, 588
 476, 480, 481, 590, 589
 477, 481, 482, 591, 590
 478, 482, 483, 592, 591
 479, 483, 484, 593, 592
 480, 484, 485, 594, 593
 481, 485, 486, 595, 594
 482, 486, 487, 596, 595
 483, 487, 488, 597, 596
 484, 488, 489, 598, 597
 485, 489, 490, 599, 598
 486, 490, 491, 600, 599
 487, 491, 492, 601, 600
 488, 492, 493, 602, 601
 489, 493, 494, 603, 602
 490, 494, 495, 604, 603
 491, 495, 496, 605, 604
 492, 496, 497, 606, 605
 493, 497, 498, 607, 606
 494, 498, 499, 608, 607
 495, 499, 500, 609, 608
 496, 500, 501, 610, 609
 497, 501, 502, 611, 610
 498, 502, 503, 612, 611
 499, 503, 504, 613, 612
 500, 504, 505, 614, 613
 501, 505, 506, 615, 614
 502, 506, 507, 616, 615
 503, 507, 508, 617, 616
 504, 508, 509, 618, 617
 505, 509, 510, 619, 618
 506, 510, 511, 620, 619
 507, 511, 512, 621, 620
 508, 512, 513, 622, 621
 509, 513, 514, 623, 622
 510, 514, 515, 624, 623
 511, 515, 516, 625, 624
 512, 516, 517, 626, 625
 513, 517, 518, 627, 626
 514, 518, 519, 628, 627
 515, 519, 520, 629, 628
 516, 520, 521, 630, 629
 517, 521, 522, 631, 630
 518, 522, 523, 632, 631
 519, 523, 524, 633, 632
 520, 524, 525, 634, 633
 521, 525, 526, 635, 634
 522, 526, 527, 636, 635
 523, 527, 528, 637, 636
 524, 528, 529, 638, 637
 525, 529, 530, 639, 638
 526, 530, 531, 640, 639
 527, 531, 532, 641, 640
 528, 532, 533, 642, 641
 529, 533, 534, 643, 642
 530, 534, 535, 644, 643
 531, 535, 536, 645, 644
 532, 536, 537, 646, 645
 533, 537, 538, 647, 646
 534, 538, 539, 648, 647
 535, 539, 540, 649, 648
 536, 540, 541, 650, 649
 537, 541, 542, 651, 650
 538, 542, 543, 652, 651
 539, 543, 544, 653, 652
 540, 544, 545, 654, 653
 541, 546, 547, 656, 655
 542, 547, 548, 657, 656
 543, 548, 549, 658, 657
 544, 549, 550, 659, 658
 545, 550, 551, 660, 659
 546, 551, 552, 661, 660
 547, 552, 553, 662, 661
 548, 553, 554, 663, 662
 549, 554, 555, 664, 663
 550, 555, 556, 665, 664
 551, 556, 557, 666, 665
 552, 557, 558, 667, 666
 553, 558, 559, 668, 667
 554, 559, 560, 669, 668
 555, 560, 561, 670, 669
 556, 561, 562, 671, 670
 557, 562, 563, 672, 671
 558, 563, 564, 673, 672
 559, 564, 565, 674, 673
 560, 565, 566, 675, 674
 561, 566, 567, 676, 675
 562, 567, 568, 677, 676
 563, 568, 569, 678, 677
 564, 569, 570, 679, 678
 565, 570, 571, 680, 679
 566, 571, 572, 681, 680
 567, 572, 573, 682, 681
 568, 573, 574, 683, 682
 569, 574, 575, 684, 683
 570, 575, 576, 685, 684
 571, 576, 577, 686, 685
 572, 577, 578, 687, 686
 573, 578, 579, 688, 687
 574, 579, 580, 689, 688
 575, 580, 581, 690, 689
 576, 581, 582, 691, 690
 577, 582, 583, 692, 691
 578, 583, 584, 693, 692
 579, 584, 585, 694, 693
 580, 585, 586, 695, 694
 581, 586, 587, 696, 695
 582, 587, 588, 697, 696
 583, 588, 589, 698, 697
 584, 589, 590, 699, 698
 585, 590, 591, 700, 699
 586, 591, 592, 701, 700
 587, 592, 593, 702, 701
 588, 593, 594, 703, 702
 589, 594, 595, 704, 703
 590, 595, 596, 705, 704
 591, 596, 597, 706, 705
 592, 597, 598, 707, 706
 593, 598, 599, 708, 707
 594, 599, 600, 709, 708
 595, 600, 601, 710, 709
 596, 601, 602, 711, 710
 597, 602, 603, 712, 711
 598, 603, 604, 713, 712
 599, 604, 605, 714, 713
 600, 605, 606, 715, 714
 601, 606, 607, 716, 715
 602, 607, 608, 717, 716
 603, 608, 609, 718, 717
 604, 609, 610, 719, 718
 605, 610, 611, 720, 719
 606, 611, 612, 721, 720
 607, 612, 613, 722, 721
 608, 613, 614, 723, 722
 609, 614, 615, 724, 723
 610, 615, 616, 725, 724
 611, 616, 617, 726, 725
 612, 617, 618, 727, 726
 613, 618, 619, 728, 727
 614, 619, 620, 729, 728
 615, 620, 621, 730, 729
 616, 621, 622, 731, 730
 617, 622, 623, 732, 731
 618, 623, 624, 733, 732
 619, 624, 625, 734, 733
 620, 625, 626, 735, 734
 621, 626, 627, 736, 735
 622, 627, 628, 737, 736
 623, 628, 629, 738, 737
 624, 629, 630, 739, 738
 625, 630, 631, 740, 739
 626, 631, 632, 741, 740
 627, 632, 633, 742, 741
 628, 633, 634, 743, 742
 629, 634, 635, 744, 743
 630, 635, 636, 745, 744
 631, 636, 637, 746, 745
 632, 637, 638, 747, 746
 633, 638, 639, 748, 747
 634, 639, 640, 749, 748
 635, 640, 641, 750, 749
 636, 641, 642, 751, 750
 637, 642, 643, 752, 751
 638, 643, 644, 753, 752
 639, 644, 645, 754, 753
 640, 645, 646, 755, 754
 641, 646, 647, 756, 755
 642, 647, 648, 757, 756
 643, 648, 649, 758, 757
 644, 649, 650, 759, 758
 645, 650, 651, 760, 759
 646, 651, 652, 761, 760
 647, 652, 653, 762, 761
 648, 653, 654, 763, 762
 649, 655, 656, 765, 764
 650, 656, 657, 766, 765
 651, 657, 658, 767, 766
 652, 658, 659, 768, 767
 653, 659, 660, 769, 768
 654, 660, 661, 770, 769
 655, 661, 662, 771, 770
 656, 662, 663, 772, 771
 657, 663, 664, 773, 772
 658, 664, 665, 774, 773
 659, 665, 666, 775, 774
 660, 666, 667, 776, 775
 661, 667, 668, 777, 776
 662, 668, 669, 778, 777
 663, 669, 670, 779, 778
 664, 670, 671, 780, 779
 665, 671, 672, 781, 780
 666, 672, 673, 782, 781
 667, 673, 674, 783, 782
 668, 674, 675, 784, 783
 669, 675, 676, 785, 784
 670, 676, 677, 786, 785
 671, 677, 678, 787, 786
 672, 678, 679, 788, 787
 673, 679, 680, 789, 788
 674, 680, 681, 790, 789
 675, 681, 682, 791, 790
 676, 682, 683, 792, 791
 677, 683, 684, 793, 792
 678, 684, 685, 794, 793
 679, 685, 686, 795, 794
 680, 686, 687, 796, 795
 681, 687, 688, 797, 796
 682, 688, 689, 798, 797
 683, 689, 690, 799, 798
 684, 690, 691, 800, 799
 685, 691, 692, 801, 800
 686, 692, 693, 802, 801
 687, 693, 694, 803, 802
 688, 694, 695, 804, 803
 689, 695, 696, 805, 804
 690, 696, 697, 806, 805
 691, 697, 698, 807, 806
 692, 698, 699, 808, 807
 693, 699, 700, 809, 808
 694, 700, 701, 810, 809
 695, 701, 702, 811, 810
 696, 702, 703, 812, 811
 697, 703, 704, 813, 812
 698, 704, 705, 814, 813
 699, 705, 706, 815, 814
 700, 706, 707, 816, 815
 701, 707, 708, 817, 816
 702, 708, 709, 818, 817
 703, 709, 710, 819, 818
 704, 710, 711, 820, 819
 705, 711, 712, 821, 820
 706, 712, 713, 822, 821
 707, 713, 714, 823, 822
 708, 714, 715, 824, 823
 709, 715, 716, 825, 824
 710, 716, 717, 826, 825
 711, 717, 718, 827, 826
 712, 718, 719, 828, 827
 713, 719, 720, 829, 828
 714, 720, 721, 830, 829
 715, 721, 722, 831, 830
 716, 722, 723, 832, 831
 717, 723, 724, 833, 832
 718, 724, 725, 834, 833
 719, 725, 726, 835, 834
 720, 726, 727, 836, 835
 721, 727, 728, 837, 836
 722, 728, 729, 838, 837
 723, 729, 730, 839, 838
 724, 730, 731, 840, 839
 725, 731, 732, 841, 840
 726, 732, 733, 842, 841
 727, 733, 734, 843, 842
 728, 734, 735, 844, 843
 729, 735, 736, 845, 844
 730, 736, 737, 846, 845
 731, 737, 738, 847, 846
 732, 738, 739, 848, 847
 733, 739, 740, 849, 848
 734, 740, 741, 850, 849
 735, 741, 742, 851, 850
 736, 742, 743, 852, 851
 737, 743, 744, 853, 852
 738, 744, 745, 854, 853
 739, 745, 746, 855, 854
 740, 746, 747, 856, 855
 741, 747, 748, 857, 856
 742, 748, 749, 858, 857
 743, 749, 750, 859, 858
 744, 750, 751, 860, 859
 745, 751, 752, 861, 860
 746, 752, 753, 862, 861
 747, 753, 754, 863, 862
 748, 754, 755, 864, 863
 749, 755, 756, 865, 864
 750, 756, 757, 866, 865
 751, 757, 758, 867, 866
 752, 758, 759, 868, 867
 753, 759, 760, 869, 868
 754, 760, 761, 870, 869
 755, 761, 762, 871, 870
 756, 762, 763, 872, 871
 757, 764, 765, 874, 873
 758, 765, 766, 875, 874
 759, 766, 767, 876, 875
 760, 767, 768, 877, 876
 761, 768, 769, 878, 877
 762, 769, 770, 879, 878
 763, 770, 771, 880, 879
 764, 771, 772, 881, 880
 765, 772, 773, 882, 881
 766, 773, 774, 883, 882
 767, 774, 775, 884, 883
 768, 775, 776, 885, 884
 769, 776, 777, 886, 885
 770, 777, 778, 887, 886
 771, 778, 779, 888, 887
 772, 779, 780, 889, 888
 773, 780, 781, 890, 889
 774, 781, 782, 891, 890
 775, 782, 783, 892, 891
 776, 783, 784, 893, 892
 777, 784, 785, 894, 893
 778, 785, 786, 895, 894
 779, 786, 787, 896, 895
 780, 787, 788, 897, 896
 781, 788, 789, 898, 897
 782, 789, 790, 899, 898
 783, 790, 791, 900, 899
 784, 791, 792, 901, 900
 785, 792, 793, 902, 901
 786, 793, 794, 903, 902
 787, 794, 795, 904, 903
 788, 795, 796, 905, 904
 789, 796, 797, 906, 905
 790, 797, 798, 907, 906
 791, 798, 799, 908, 907
 792, 799, 800, 909, 908
 793, 800, 801, 910, 909
 794, 801, 802, 911, 910
 795, 802, 803, 912, 911
 796, 803, 804, 913, 912
 797, 804, 805, 914, 913
 798, 805, 806, 915, 914
 799, 806, 807, 916, 915
 800, 807, 808, 917, 916
 801, 808, 809, 918, 917
 802, 809, 810, 919, 918
 803, 810, 811, 920, 919
 804, 811, 812, 921, 920
 805, 812, 813, 922, 921
 806, 813, 814, 923, 922
 807, 814, 815, 924, 923
 808, 815, 816, 925, 924
 809, 816, 817, 926, 925
 810, 817, 818, 927, 926
 811, 818, 819, 928, 927
 812, 819, 820, 929, 928
 813, 820, 821, 930, 929
 814, 821, 822, 931, 930
 815, 822, 823, 932, 931
 816, 823, 824, 933, 932
 817, 824, 825, 934, 933
 818, 825, 826, 935, 934
 819, 826, 827, 936, 935
 820, 827, 828, 937, 936
 821, 828, 829, 938, 937
 822, 829, 830, 939, 938
 823, 830, 831, 940, 939
 824, 831, 832, 941, 940
 825, 832, 833, 942, 941
 826, 833, 834, 943, 942
 827, 834, 835, 944, 943
 828, 835, 836, 945, 944
 829, 836, 837, 946, 945
 830, 837, 838, 947, 946
 831, 838, 839, 948, 947
 832, 839, 840, 949, 948
 833, 840, 841, 950, 949
 834, 841, 842, 951, 950
 835, 842, 843, 952, 951
 836, 843, 844, 953, 952
 837, 844, 845, 954, 953
 838, 845, 846, 955, 954
 839, 846, 847, 956, 955
 840, 847, 848, 957, 956
 841, 848, 849, 958, 957
 842, 849, 850, 959, 958
 843, 850, 851, 960, 959
 844, 851, 852, 961, 960
 845, 852, 853, 962, 961
 846, 853, 854, 963, 962
 847, 854, 855, 964, 963
 848, 855, 856, 965, 964
 849, 856, 857, 966, 965
 850, 857, 858, 967, 966
 851, 858, 859, 968, 967
 852, 859, 860, 969, 968
 853, 860, 861, 970, 969
 854, 861, 862, 971, 970
 855, 862, 863, 972, 971
 856, 863, 864, 973, 972
 857, 864, 865, 974, 973
 858, 865, 866, 975, 974
 859, 866, 867, 976, 975
 860, 867, 868, 977, 976
 861, 868, 869, 978, 977
 862, 869, 870, 979, 978
 863, 870, 871, 980, 979
 864, 871, 872, 981, 980
 865, 873, 874, 983, 982
 866, 874, 875, 984, 983
 867, 875, 876, 985, 984
 868, 876, 877, 986, 985
 869, 877, 878, 987, 986
 870, 878, 879, 988, 987
 871, 879, 880, 989, 988
 872, 880, 881, 990, 989
 873, 881, 882, 991, 990
 874, 882, 883, 992, 991
 875, 883, 884, 993, 992
 876, 884, 885, 994, 993
 877, 885, 886, 995, 994
 878, 886, 887, 996, 995
 879, 887, 888, 997, 996
 880, 888, 889, 998, 997
 881, 889, 890, 999, 998
 882, 890, 891, 1000, 999
 883, 891, 892, 1001, 1000
 884, 892, 893, 1002, 1001
 885, 893, 894, 1003, 1002
 886, 894, 895, 1004, 1003
 887, 895, 896, 1005, 1004
 888, 896, 897, 1006, 1005
 889, 897, 898, 1007, 1006
 890, 898, 899, 1008, 1007
 891, 899, 900, 1009, 1008
 892, 900, 901, 1010, 1009
 893, 901, 902, 1011, 1010
 894, 902, 903, 1012, 1011
 895, 903, 904, 1013, 1012
 896, 904, 905, 1014, 1013
 897, 905, 906, 1015, 1014
 898, 906, 907, 1016, 1015
 899, 907, 908, 1017, 1016
 900, 908, 909, 1018, 1017
 901, 909, 910, 1019, 1018
 902, 910, 911, 1020, 1019
 903, 911, 912, 1021, 1020
 904, 912, 913, 1022, 1021
 905, 913, 914, 1023, 1022
 906, 914, 915, 1024, 1023
 907, 915, 916, 1025, 1024
 908, 916, 917, 1026, 1025
 909, 917, 918, 1027, 1026
 910, 918, 919, 1028, 1027
 911, 919, 920, 1029, 1028
 912, 920, 921, 1030, 1029
 913, 921, 922, 1031, 1030
 914, 922, 923, 1032, 1031
 915, 923, 924, 1033, 1032
 916, 924, 925, 1034, 1033
 917, 925, 926, 1035, 1034
 918, 926, 927, 1036, 1035
 919, 927, 928, 1037, 1036
 920, 928, 929, 1038, 1037
 921, 929, 930, 1039, 1038
 922, 930, 931, 1040, 1039
 923, 931, 932, 1041, 1040
 924, 932, 933, 1042, 1041
 925, 933, 934, 1043, 1042
 926, 934, 935, 1044, 1043
 927, 935, 936, 1045, 1044
 928, 936, 937, 1046, 1045
 929, 937, 938, 1047, 1046
 930, 938, 939, 1048, 1047
 931, 939, 940, 1049, 1048
 932, 940, 941, 1050, 1049
 933, 941, 942, 1051, 1050
 934, 942, 943, 1052, 1051
 935, 943, 944, 1053, 1052
 936, 944, 945, 1054, 1053
 937, 945, 946, 1055, 1054
 938, 946, 947, 1056, 1055
 939, 947, 948, 1057, 1056
 940, 948, 949, 1058, 1057
 941, 949, 950, 1059, 1058
 942, 950, 951, 1060, 1059
 943, 951, 952, 1061, 1060
 944, 952, 953, 1062, 1061
 945, 953, 954, 1063, 1062
 946, 954, 955, 1064, 1063
 947, 955, 956, 1065, 1064
 948, 956, 957, 1066, 1065
 949, 957, 958, 1067, 1066
 950, 958, 959, 1068, 1067
 951, 959, 960, 1069, 1068
 952, 960, 961, 1070, 1069
 953, 961, 962, 1071, 1070
 954, 962, 963, 1072, 1071
 955, 963, 964, 1073, 1072
 956, 964, 965, 1074, 1073
 957, 965, 966, 1075, 1074
 958, 966, 967, 1076, 1075
 959, 967, 968, 1077, 1076
 960, 968, 969, 1078, 1077
 961, 969, 970, 1079, 1078
 962, 970, 971, 1080, 1079
 963, 971, 972, 1081, 1080
 964, 972, 973, 1082, 1081
 965, 973, 974, 1083, 1082
 966, 974, 975, 1084, 1083
 967, 975, 976, 1085, 1084
 968, 976, 977, 1086, 1085
 969, 977, 978, 1087, 1086
 970, 978, 979, 1088, 1087
 971, 979, 980, 1089, 1088
 972, 980, 981, 1090, 1089
 973, 982, 983, 1092, 1091
 974, 983, 984, 1093, 1092
 975, 984, 985, 1094, 1093
 976, 985, 986, 1095, 1094
 977, 986, 987, 1096, 1095
 978, 987, 988, 1097, 1096
 979, 988, 989, 1098, 1097
 980, 989, 990, 1099, 1098
 981, 990, 991, 1100, 1099
 982, 991, 992, 1101, 1100
 983, 992, 993, 1102, 1101
 984, 993, 994, 1103, 1102
 985, 994, 995, 1104, 1103
 986, 995, 996, 1105, 1104
 987, 996, 997, 1106, 1105
 988, 997, 998, 1107, 1106
 989, 998, 999, 1108, 1107
 990, 999, 1000, 1109, 1108
 991, 1000, 1001, 1110, 1109
 992, 1001, 1002, 1111, 1110
 993, 1002, 1003, 1112, 1111
 994, 1003, 1004, 1113, 1112
 995, 1004, 1005, 1114, 1113
 996, 1005, 1006, 1115, 1114
 997, 1006, 1007, 1116, 1115
 998, 1007, 1008, 1117, 1116
 999, 1008, 1009, 1118, 1117
 1000, 1009, 1010, 1119, 1118
 1001, 1010, 1011, 1120, 1119
 1002, 1011, 1012, 1121, 1120
 1003, 1012, 1013, 1122, 1121
 1004, 1013, 1014, 1123, 1122
 1005, 1014, 1015, 1124, 1123
 1006, 1015, 1016, 1125, 1124
 1007, 1016, 1017, 1126, 1125
 1008, 1017, 1018, 1127, 1126
 1009, 1018, 1019, 1128, 1127
 1010, 1019, 1020, 1129, 1128
 1011, 1020, 1021, 1130, 1129
 1012, 1021, 1022, 1131, 1130
 1013, 1022, 1023, 1132, 1131
 1014, 1023, 1024, 1133, 1132
 1015, 1024, 1025, 1134, 1133
 1016, 1025, 1026, 1135, 1134
 1017, 1026, 1027, 1136, 1135
 1018, 1027, 1028, 1137, 1136
 1019, 1028, 1029, 1138, 1137
 1020, 1029, 1030, 1139, 1138
 1021, 1030, 1031, 1140, 1139
 1022, 1031, 1032, 1141, 1140
 1023, 1032, 1033, 1142, 1141
 1024, 1033, 1034, 1143, 1142
 1025, 1034, 1035, 1144, 1143
 1026, 1035, 1036, 1145, 1144
 1027, 1036, 1037, 1146, 1145
 1028, 1037, 1038, 1147, 1146
 1029, 1038, 1039, 1148, 1147
 1030, 1039, 1040, 1149, 1148
 1031, 1040, 1041, 1150, 1149
 1032, 1041, 1042, 1151, 1150
 1033, 1042, 1043, 1152, 1151
 1034, 1043, 1044, 1153, 1152
 1035, 1044, 1045, 1154, 1153
 1036, 1045, 1046, 1155, 1154
 1037, 1046, 1047, 1156, 1155
 1038, 1047, 1048, 1157, 1156
 1039, 1048, 1049, 1158, 1157
 1040, 1049, 1050, 1159, 1158
 1041, 1050, 1051, 1160, 1159
 1042, 1051, 1052, 1161, 1160
 1043, 1052, 1053, 1162, 1161
 1044, 1053, 1054, 1163, 1162
 1045, 1054, 1055, 1164, 1163
 1046, 1055, 1056, 1165, 1164
 1047, 1056, 1057, 1166, 1165
 1048, 1057, 1058, 1167, 1166
 1049, 1058, 1059, 1168, 1167
 1050, 1059, 1060, 1169, 1168
 1051, 1060, 1061, 1170, 1169
 1052, 1061, 1062, 1171, 1170
 1053, 1062, 1063, 1172, 1171
 1054, 1063, 1064, 1173, 1172
 1055, 1064, 1065, 1174, 1173
 1056, 1065, 1066, 1175, 1174
 1057, 1066, 1067, 1176, 1175
 1058, 1067, 1068, 1177, 1176
 1059, 1068, 1069, 1178, 1177
 1060, 1069, 1070, 1179, 1178
 1061, 1070, 1071, 1180, 1179
 1062, 1071, 1072, 1181, 1180
 1063, 1072, 1073, 1182, 1181
 1064, 1073, 1074, 1183, 1182
 1065, 1074, 1075, 1184, 1183
 1066, 1075, 1076, 1185, 1184
 1067, 1076, 1077, 1186, 1185
 1068, 1077, 1078, 1187, 1186
 1069, 1078, 1079, 1188, 1187
 1070, 1079, 1080, 1189, 1188
 1071, 1080, 1081, 1190, 1189
 1072, 1081, 1082, 1191, 1190
 1073, 1082, 1083, 1192, 1191
 1074, 1083, 1084, 1193, 1192
 1075, 1084, 1085, 1194, 1193
 1076, 1085, 1086, 1195, 1194
 1077, 1086, 1087, 1196, 1195
 1078, 1087, 1088, 1197, 1196
 1079, 1088, 1089, 1198, 1197
 1080, 1089, 1090, 1199, 1198
 1081, 1091, 1092, 1201, 1200
 1082, 1092, 1093, 1202, 1201
 1083, 1093, 1094, 1203, 1202
 1084, 1094, 1095, 1204, 1203
 1085, 1095, 1096, 1205, 1204
 1086, 1096, 1097, 1206, 1205
 1087, 1097, 1098, 1207, 1206
 1088, 1098, 1099, 1208, 1207
 1089, 1099, 1100, 1209, 1208
 1090, 1100, 1101, 1210, 1209
 1091, 1101, 1102, 1211, 1210
 1092, 1102, 1103, 1212, 1211
 1093, 1103, 1104, 1213, 1212
 1094, 1104, 1105, 1214, 1213
 1095, 1105, 1106, 1215, 1214
 1096, 1106, 1107, 1216, 1215
 1097, 1107, 1108, 1217, 1216
 1098, 1108, 1109, 1218, 1217
 1099, 1109, 1110, 1219, 1218
 1100, 1110, 1111, 1220, 1219
 1101, 1111, 1112, 1221, 1220
 1102, 1112, 1113, 1222, 1221
 1103, 1113, 1114, 1223, 1222
 1104, 1114, 1115, 1224, 1223
 1105, 1115, 1116, 1225, 1224
 1106, 1116, 1117, 1226, 1225
 1107, 1117, 1118, 1227, 1226
 1108, 1118, 1119, 1228, 1227
 1109, 1119, 1120, 1229, 1228
 1110, 1120, 1121, 1230, 1229
 1111, 1121, 1122, 1231, 1230
 1112, 1122, 1123, 1232, 1231
 1113, 1123, 1124, 1233, 1232
 1114, 1124, 1125, 1234, 1233
 1115, 1125, 1126, 1235, 1234
 1116, 1126, 1127, 1236, 1235
 1117, 1127, 1128, 1237, 1236
 1118, 1128, 1129, 1238, 1237
 1119, 1129, 1130, 1239, 1238
 1120, 1130, 1131, 1240, 1239
 1121, 1131, 1132, 1241, 1240
 1122, 1132, 1133, 1242, 1241
 1123, 1133, 1134, 1243, 1242
 1124, 1134, 1135, 1244, 1243
 1125, 1135, 1136, 1245, 1244
 1126, 1136, 1137, 1246, 1245
 1127, 1137, 1138, 1247, 1246
 1128, 1138, 1139, 1248, 1247
 1129, 1139, 1140, 1249, 1248
 1130, 1140, 1141, 1250, 1249
 1131, 1141, 1142, 1251, 1250
 1132, 1142, 1143, 1252, 1251
 1133, 1143, 1144, 1253, 1252
 1134, 1144, 1145, 1254, 1253
 1135, 1145, 1146, 1255, 1254
 1136, 1146, 1147, 1256, 1255
 1137, 1147, 1148, 1257, 1256
 1138, 1148, 1149, 1258, 1257
 1139, 1149, 1150, 1259, 1258
 1140, 1150, 1151, 1260, 1259
 1141, 1151, 1152, 1261, 1260
 1142, 1152, 1153, 1262, 1261
 1143, 1153, 1154, 1263, 1262
 1144, 1154, 1155, 1264, 1263
 1145, 1155, 1156, 1265, 1264
 1146, 1156, 1157, 1266, 1265
 1147, 1157, 1158, 1267, 1266
 1148, 1158, 1159, 1268, 1267
 1149, 1159, 1160, 1269, 1268
 1150, 1160, 1161, 1270, 1269
 1151, 1161, 1162, 1271, 1270
 1152, 1162, 1163, 1272, 1271
 1153, 1163, 1164, 1273, 1272
 1154, 1164, 1165, 1274, 1273
 1155, 1165, 1166, 1275, 1274
 1156, 1166, 1167, 1276, 1275
 1157, 1167, 1168, 1277, 1276
 1158, 1168, 1169, 1278, 1277
 1159, 1169, 1170, 1279, 1278
 1160, 1170, 1171, 1280, 1279
 1161, 1171, 1172, 1281, 1280
 1162, 1172, 1173, 1282, 1281
 1163, 1173, 1174, 1283, 1282
 1164, 1174, 1175, 1284, 1283
 1165, 1175, 1176, 1285, 1284
 1166, 1176, 1177, 1286, 1285
 1167, 1177, 1178, 1287, 1286
 1168, 1178, 1179, 1288, 1287
 1169, 1179, 1180, 1289, 1288
 1170, 1180, 1181, 1290, 1289
 1171, 1181, 1182, 1291, 1290
 1172, 1182, 1183, 1292, 1291
 1173, 1183, 1184, 1293, 1292
 1174, 1184, 1185, 1294, 1293
 1175, 1185, 1186, 1295, 1294
 1176, 1186, 1187, 1296, 1295
 1177, 1187, 1188, 1297, 1296
 1178, 1188, 1189, 1298, 1297
 1179, 1189, 1190, 1299, 1298
 1180, 1190, 1191, 1300, 1299
 1181, 1191, 1192, 1301, 1300
 1182, 1192, 1193, 1302, 1301
 1183, 1193, 1194, 1303, 1302
 1184, 1194, 1195, 1304, 1303
 1185, 1195, 1196, 1305, 1304
 1186, 1196, 1197, 1306, 1305
 1187, 1197, 1198, 1307, 1306
 1188, 1198, 1199, 1308, 1307
 1189, 1200, 1201, 1310, 1309
 1190, 1201, 1202, 1311, 1310
 1191, 1202, 1203, 1312, 1311
 1192, 1203, 1204, 1313, 1312
 1193, 1204, 1205, 1314, 1313
 1194, 1205, 1206, 1315, 1314
 1195, 1206, 1207, 1316, 1315
 1196, 1207, 1208, 1317, 1316
 1197, 1208, 1209, 1318, 1317
 1198, 1209, 1210, 1319, 1318
 1199, 1210, 1211, 1320, 1319
 1200, 1211, 1212, 1321, 1320
 1201, 1212, 1213, 1322, 1321
 1202, 1213, 1214, 1323, 1322
 1203, 1214, 1215, 1324, 1323
 1204, 1215, 1216, 1325, 1324
 1205, 1216, 1217, 1326, 1325
 1206, 1217, 1218, 1327, 1326
 1207, 1218, 1219, 1328, 1327
 1208, 1219, 1220, 1329, 1328
 1209, 1220, 1221, 1330, 1329
 1210, 1221, 1222, 1331, 1330
 1211, 1222, 1223, 1332, 1331
 1212, 1223, 1224, 1333, 1332
 1213, 1224, 1225, 1334, 1333
 1214, 1225, 1226, 1335, 1334
 1215, 1226, 1227, 1336, 1335
 1216, 1227, 1228, 1337, 1336
 1217, 1228, 1229, 1338, 1337
 1218, 1229, 1230, 1339, 1338
 1219, 1230, 1231, 1340, 1339
 1220, 1231, 1232, 1341, 1340
 1221, 1232, 1233, 1342, 1341
 1222, 1233, 1234, 1343, 1342
 1223, 1234, 1235, 1344, 1343
 1224, 1235, 1236, 1345, 1344
 1225, 1236, 1237, 1346, 1345
 1226, 1237, 1238, 1347, 1346
 1227, 1238, 1239, 1348, 1347
 1228, 1239, 1240, 1349, 1348
 1229, 1240, 1241, 1350, 1349
 1230, 1241, 1242, 1351, 1350
 1231, 1242, 1243, 1352, 1351
 1232, 1243, 1244, 1353, 1352
 1233, 1244, 1245, 1354, 1353
 1234, 1245, 1246, 1355, 1354
 1235, 1246, 1247, 1356, 1355
 1236, 1247, 1248, 1357, 1356
 1237, 1248, 1249, 1358, 1357
 1238, 1249, 1250, 1359, 1358
 1239, 1250, 1251, 1360, 1359
 1240, 1251, 1252, 1361, 1360
 1241, 1252, 1253, 1362, 1361
 1242, 1253, 1254, 1363, 1362
 1243, 1254, 1255, 1364, 1363
 1244, 1255, 1256, 1365, 1364
 1245, 1256, 1257, 1366, 1365
 1246, 1257, 1258, 1367, 1366
 1247, 1258, 1259, 1368, 1367
 1248, 1259, 1260, 1369, 1368
 1249, 1260, 1261, 1370, 1369
 1250, 1261, 1262, 1371, 1370
 1251, 1262, 1263, 1372, 1371
 1252, 1263, 1264, 1373, 1372
 1253, 1264, 1265, 1374, 1373
 1254, 1265, 1266, 1375, 1374
 1255, 1266, 1267, 1376, 1375
 1256, 1267, 1268, 1377, 1376
 1257, 1268, 1269, 1378, 1377
 1258, 1269, 1270, 1379, 1378
 1259, 1270, 1271, 1380, 1379
 1260, 1271, 1272, 1381, 1380
 1261, 1272, 1273, 1382, 1381
 1262, 1273, 1274, 1383, 1382
 1263, 1274, 1275, 1384, 1383
 1264, 1275, 1276, 1385, 1384
 1265, 1276, 1277, 1386, 1385
 1266, 1277, 1278, 1387, 1386
 1267, 1278, 1279, 1388, 1387
 1268, 1279, 1280, 1389, 1388
 1269, 1280, 1281, 1390, 1389
 1270, 1281, 1282, 1391, 1390
 1271, 1282, 1283, 1392, 1391
 1272, 1283, 1284, 1393, 1392
 1273, 1284, 1285, 1394, 1393
 1274, 1285, 1286, 1395, 1394
 1275, 1286, 1287, 1396, 1395
 1276, 1287, 1288, 1397, 1396
 1277, 1288, 1289, 1398, 1397
 1278, 1289, 1290, 1399, 1398
 1279, 1290, 1291, 1400, 1399
 1280, 1291, 1292, 1401, 1400
 1281, 1292, 1293, 1402, 1401
 1282, 1293, 1294, 1403, 1402
 1283, 1294, 1295, 1404, 1403
 1284, 1295, 1296, 1405, 1404
 1285, 1296, 1297, 1406, 1405
 1286, 1297, 1298, 1407, 1406
 1287, 1298, 1299, 1408, 1407
 1288, 1299, 1300, 1409, 1408
 1289, 1300, 1301, 1410, 1409
 1290, 1301, 1302, 1411, 1410
 1291, 1302, 1303, 1412, 1411
 1292, 1303, 1304, 1413, 1412
 1293, 1304, 1305, 1414, 1413
 1294, 1305, 1306, 1415, 1414
 1295, 1306, 1307, 1416, 1415
 1296, 1307, 1308, 1417, 1416
 1297, 1309, 1310, 1419, 1418
 1298, 1310, 1311, 1420, 1419
 1299, 1311, 1312, 1421, 1420
 1300, 1312, 1313, 1422, 1421
 1301, 1313, 1314, 1423, 1422
 1302, 1314, 1315, 1424, 1423
 1303, 1315, 1316, 1425, 1424
 1304, 1316, 1317, 1426, 1425
 1305, 1317, 1318, 1427, 1426
 1306, 1318, 1319, 1428, 1427
 1307, 1319, 1320, 1429, 1428
 1308, 1320, 1321, 1430, 1429
 1309, 1321, 1322, 1431, 1430
 1310, 1322, 1323, 1432, 1431
 1311, 1323, 1324, 1433, 1432
 1312, 1324, 1325, 1434, 1433
 1313, 1325, 1326, 1435, 1434
 1314, 1326, 1327, 1436, 1435
 1315, 1327, 1328, 1437, 1436
 1316, 1328, 1329, 1438, 1437
 1317, 1329, 1330, 1439, 1438
 1318, 1330, 1331, 1440, 1439
 1319, 1331, 1332, 1441, 1440
 1320, 1332, 1333, 1442, 1441
 1321, 1333, 1334, 1443, 1442
 1322, 1334, 1335, 1444, 1443
 1323, 1335, 1336, 1445, 1444
 1324, 1336, 1337, 1446, 1445
 1325, 1337, 1338, 1447, 1446
 1326, 1338, 1339, 1448, 1447
 1327, 1339, 1340, 1449, 1448
 1328, 1340, 1341, 1450, 1449
 1329, 1341, 1342, 1451, 1450
 1330, 1342, 1343, 1452, 1451
 1331, 1343, 1344, 1453, 1452
 1332, 1344, 1345, 1454, 1453
 1333, 1345, 1346, 1455, 1454
 1334, 1346, 1347, 1456, 1455
 1335, 1347, 1348, 1457, 1456
 1336, 1348, 1349, 1458, 1457
 1337, 1349, 1350, 1459, 1458
 1338, 1350, 1351, 1460, 1459
 1339, 1351, 1352, 1461, 1460
 1340, 1352, 1353, 1462, 1461
 1341, 1353, 1354, 1463, 1462
 1342, 1354, 1355, 1464, 1463
 1343, 1355, 1356, 1465, 1464
 1344, 1356, 1357, 1466, 1465
 1345, 1357, 1358, 1467, 1466
 1346, 1358, 1359, 1468, 1467
 1347, 1359, 1360, 1469, 1468
 1348, 1360, 1361, 1470, 1469
 1349, 1361, 1362, 1471, 1470
 1350, 1362, 1363, 1472, 1471
 1351, 1363, 1364, 1473, 1472
 1352, 1364, 1365, 1474, 1473
 1353, 1365, 1366, 1475, 1474
 1354, 1366, 1367, 1476, 1475
 1355, 1367, 1368, 1477, 1476
 1356, 1368, 1369, 1478, 1477
 1357, 1369, 1370, 1479, 1478
 1358, 1370, 1371, 1480, 1479
 1359, 1371, 1372, 1481, 1480
 1360, 1372, 1373, 1482, 1481
 1361, 1373, 1374, 1483, 1482
 1362, 1374, 1375, 1484, 1483
 1363, 1375, 1376, 1485, 1484
 1364, 1376, 1377, 1486, 1485
 1365, 1377, 1378, 1487, 1486
 1366, 1378, 1379, 1488, 1487
 1367, 1379, 1380, 1489, 1488
 1368, 1380, 1381, 1490, 1489
 1369, 1381, 1382, 1491, 1490
 1370, 1382, 1383, 1492, 1491
 1371, 1383, 1384, 1493, 1492
 1372, 1384, 1385, 1494, 1493
 1373, 1385, 1386, 1495, 1494
 1374, 1386, 1387, 1496, 1495
 1375, 1387, 1388, 1497, 1496
 1376, 1388, 1389, 1498, 1497
 1377, 1389, 1390, 1499, 1498
 1378, 1390, 1391, 1500, 1499
 1379, 1391, 1392, 1501, 1500
 1380, 1392, 1393, 1502, 1501
 1381, 1393, 1394, 1503, 1502
 1382, 1394, 1395, 1504, 1503
 1383, 1395, 1396, 1505, 1504
 1384, 1396, 1397, 1506, 1505
 1385, 1397, 1398, 1507, 1506
 1386, 1398, 1399, 1508, 1507
 1387, 1399, 1400, 1509, 1508
 1388, 1400, 1401, 1510, 1509
 1389, 1401, 1402, 1511, 1510
 1390, 1402, 1403, 1512, 1511
 1391, 1403, 1404, 1513, 1512
 1392, 1404, 1405, 1514, 1513
 1393, 1405, 1406, 1515, 1514
 1394, 1406, 1407, 1516, 1515
 1395, 1407, 1408, 1517, 1516
 1396, 1408, 1409, 1518, 1517
 1397, 1409, 1410, 1519, 1518
 1398, 1410, 1411, 1520, 1519
 1399, 1411, 1412, 1521, 1520
 1400, 1412, 1413, 1522, 1521
 1401, 1413, 1414, 1523, 1522
 1402, 1414, 1415, 1524, 1523
 1403, 1415, 1416, 1525, 1524
 1404, 1416, 1417, 1526, 1525
 1405, 1418, 1419, 1528, 1527
 1406, 1419, 1420, 1529, 1528
 1407, 1420, 1421, 1530, 1529
 1408, 1421, 1422, 1531, 1530
 1409, 1422, 1423, 1532, 1531
 1410, 1423, 1424, 1533, 1532
 1411, 1424, 1425, 1534, 1533
 1412, 1425, 1426, 1535, 1534
 1413, 1426, 1427, 1536, 1535
 1414, 1427, 1428, 1537, 1536
 1415, 1428, 1429, 1538, 1537
 1416, 1429, 1430, 1539, 1538
 1417, 1430, 1431, 1540, 1539
 1418, 1431, 1432, 1541, 1540
 1419, 1432, 1433, 1542, 1541
 1420, 1433, 1434, 1543, 1542
 1421, 1434, 1435, 1544, 1543
 1422, 1435, 1436, 1545, 1544
 1423, 1436, 1437, 1546, 1545
 1424, 1437, 1438, 1547, 1546
 1425, 1438, 1439, 1548, 1547
 1426, 1439, 1440, 1549, 1548
 1427, 1440, 1441, 1550, 1549
 1428, 1441, 1442, 1551, 1550
 1429, 1442, 1443, 1552, 1551
 1430, 1443, 1444, 1553, 1552
 1431, 1444, 1445, 1554, 1553
 1432, 1445, 1446, 1555, 1554
 1433, 1446, 1447, 1556, 1555
 1434, 1447, 1448, 1557, 1556
 1435, 1448, 1449, 1558, 1557
 1436, 1449, 1450, 1559, 1558
 1437, 1450, 1451, 1560, 1559
 1438, 1451, 1452, 1561, 1560
 1439, 1452, 1453, 1562, 1561
 1440, 1453, 1454, 1563, 1562
 1441, 1454, 1455, 1564, 1563
 1442, 1455, 1456, 1565, 1564
 1443, 1456, 1457, 1566, 1565
 1444, 1457, 1458, 1567, 1566
 1445, 1458, 1459, 1568, 1567
 1446, 1459, 1460, 1569, 1568
 1447, 1460, 1461, 1570, 1569
 1448, 1461, 1462, 1571, 1570
 1449, 1462, 1463, 1572, 1571
 1450, 1463, 1464, 1573, 1572
 1451, 1464, 1465, 1574, 1573
 1452, 1465, 1466, 1575, 1574
 1453, 1466, 1467, 1576, 1575
 1454, 1467, 1468, 1577, 1576
 1455, 1468, 1469, 1578, 1577
 1456, 1469, 1470, 1579, 1578
 1457, 1470, 1471, 1580, 1579
 1458, 1471, 1472, 1581, 1580
 1459, 1472, 1473, 1582, 1581
 1460, 1473, 1474, 1583, 1582
 1461, 1474, 1475, 1584, 1583
 1462, 1475, 1476, 1585, 1584
 1463, 1476, 1477, 1586, 1585
 1464, 1477, 1478, 1587, 1586
 1465, 1478, 1479, 1588, 1587
 1466, 1479, 1480, 1589, 1588
 1467, 1480, 1481, 1590, 1589
 1468, 1481, 1482, 1591, 1590
 1469, 1482, 1483, 1592, 1591
 1470, 1483, 1484, 1593, 1592
 1471, 1484, 1485, 1594, 1593
 1472, 1485, 1486, 1595, 1594
 1473, 1486, 1487, 1596, 1595
 1474, 1487, 1488, 1597, 1596
 1475, 1488, 1489, 1598, 1597
 1476, 1489, 1490, 1599, 1598
 1477, 1490, 1491, 1600, 1599
 1478, 1491, 1492, 1601, 1600
 1479, 1492, 1493, 1602, 1601
 1480, 1493, 1494, 1603, 1602
 1481, 1494, 1495, 1604, 1603
 1482, 1495, 1496, 1605, 1604
 1483, 1496, 1497, 1606, 1605
 1484, 1497, 1498, 1607, 1606
 1485, 1498, 1499, 1608, 1607
 1486, 1499, 1500, 1609, 1608
 1487, 1500, 1501, 1610, 1609
 1488, 1501, 1502, 1611, 1610
 1489, 1502, 1503, 1612, 1611
 1490, 1503, 1504, 1613, 1612
 1491, 1504, 1505, 1614, 1613
 1492, 1505, 1506, 1615, 1614
 1493, 1506, 1507, 1616, 1615
 1494, 1507, 1508, 1617, 1616
 1495, 1508, 1509, 1618, 1617
 1496, 1509, 1510, 1619, 1618
 1497, 1510, 1511, 1620, 1619
 1498, 1511, 1512, 1621, 1620
 1499, 1512, 1513, 1622, 1621
 1500, 1513, 1514, 1623, 1622
 1501, 1514, 1515, 1624, 1623
 1502, 1515, 1516, 1625, 1624
 1503, 1516, 1517, 1626, 1625
 1504, 1517, 1518, 1627, 1626
 1505, 1518, 1519, 1628, 1627
 1506, 1519, 1520, 1629, 1628
 1507, 1520, 1521, 1630, 1629
 1508, 1521, 1522, 1631, 1630
 1509, 1522, 1523, 1632, 1631
 1510, 1523, 1524, 1633, 1632
 1511, 1524, 1525, 1634, 1633
 1512, 1525, 1526, 1635, 1634
 1513, 1527, 1528, 1637, 1636
 1514, 1528, 1529, 1638, 1637
 1515, 1529, 1530, 1639, 1638
 1516, 1530, 1531, 1640, 1639
 1517, 1531, 1532, 1641, 1640
 1518, 1532, 1533, 1642, 1641
 1519, 1533, 1534, 1643, 1642
 1520, 1534, 1535, 1644, 1643
 1521, 1535, 1536, 1645, 1644
 1522, 1536, 1537, 1646, 1645
 1523, 1537, 1538, 1647, 1646
 1524, 1538, 1539, 1648, 1647
 1525, 1539, 1540, 1649, 1648
 1526, 1540, 1541, 1650, 1649
 1527, 1541, 1542, 1651, 1650
 1528, 1542, 1543, 1652, 1651
 1529, 1543, 1544, 1653, 1652
 1530, 1544, 1545, 1654, 1653
 1531, 1545, 1546, 1655, 1654
 1532, 1546, 1547, 1656, 1655
 1533, 1547, 1548, 1657, 1656
 1534, 1548, 1549, 1658, 1657
 1535, 1549, 1550, 1659, 1658
 1536, 1550, 1551, 1660, 1659
 1537, 1551, 1552, 1661, 1660
 1538, 1552, 1553, 1662, 1661
 1539, 1553, 1554, 1663, 1662
 1540, 1554, 1555, 1664, 1663
 1541, 1555, 1556, 1665, 1664
 1542, 1556, 1557, 1666, 1665
 1543, 1557, 1558, 1667, 1666
 1544, 1558, 1559, 1668, 1667
 1545, 1559, 1560, 1669, 1668
 1546, 1560, 1561, 1670, 1669
 1547, 1561, 1562, 1671, 1670
 1548, 1562, 1563, 1672, 1671
 1549, 1563, 1564, 1673, 1672
 1550, 1564, 1565, 1674, 1673
 1551, 1565, 1566, 1675, 1674
 1552, 1566, 1567, 1676, 1675
 1553, 1567, 1568, 1677, 1676
 1554, 1568, 1569, 1678, 1677
 1555, 1569, 1570, 1679, 1678
 1556, 1570, 1571, 1680, 1679
 1557, 1571, 1572, 1681, 1680
 1558, 1572, 1573, 1682, 1681
 1559, 1573, 1574, 1683, 1682
 1560, 1574, 1575, 1684, 1683
 1561, 1575, 1576, 1685, 1684
 1562, 1576, 1577, 1686, 1685
 1563, 1577, 1578, 1687, 1686
 1564, 1578, 1579, 1688, 1687
 1565, 1579, 1580, 1689, 1688
 1566, 1580, 1581, 1690, 1689
 1567, 1581, 1582, 1691, 1690
 1568, 1582, 1583, 1692, 1691
 1569, 1583, 1584, 1693, 1692
 1570, 1584, 1585, 1694, 1693
 1571, 1585, 1586, 1695, 1694
 1572, 1586, 1587, 1696, 1695
 1573, 1587, 1588, 1697, 1696
 1574, 1588, 1589, 1698, 1697
 1575, 1589, 1590, 1699, 1698
 1576, 1590, 1591, 1700, 1699
 1577, 1591, 1592, 1701, 1700
 1578, 1592, 1593, 1702, 1701
 1579, 1593, 1594, 1703, 1702
 1580, 1594, 1595, 1704, 1703
 1581, 1595, 1596, 1705, 1704
 1582, 1596, 1597, 1706, 1705
 1583, 1597, 1598, 1707, 1706
 1584, 1598, 1599, 1708, 1707
 1585, 1599, 1600, 1709, 1708
 1586, 1600, 1601, 1710, 1709
 1587, 1601, 1602, 1711, 1710
 1588, 1602, 1603, 1712, 1711
 1589, 1603, 1604, 1713, 1712
 1590, 1604, 1605, 1714, 1713
 1591, 1605, 1606, 1715, 1714
 1592, 1606, 1607, 1716, 1715
 1593, 1607, 1608, 1717, 1716
 1594, 1608, 1609, 1718, 1717
 1595, 1609, 1610, 1719, 1718
 1596, 1610, 1611, 1720, 1719
 1597, 1611, 1612, 1721, 1720
 1598, 1612, 1613, 1722, 1721
 1599, 1613, 1614, 1723, 1722
 1600, 1614, 1615, 1724, 1723
 1601, 1615, 1616, 1725, 1724
 1602, 1616, 1617, 1726, 1725
 1603, 1617, 1618, 1727, 1726
 1604, 1618, 1619, 1728, 1727
 1605, 1619, 1620, 1729, 1728
 1606, 1620, 1621, 1730, 1729
 1607, 1621, 1622, 1731, 1730
 1608, 1622, 1623, 1732, 1731
 1609, 1623, 1624, 1733, 1732
 1610, 1624, 1625, 1734, 1733
 1611, 1625, 1626, 1735, 1734
 1612, 1626, 1627, 1736, 1735
 1613, 1627, 1628, 1737, 1736
 1614, 1628, 1629, 1738, 1737
 1615, 1629, 1630, 1739, 1738
 1616, 1630, 1631, 1740, 1739
 1617, 1631, 1632, 1741, 1740
 1618, 1632, 1633, 1742, 1741
 1619, 1633, 1634, 1743, 1742
 1620, 1634, 1635, 1744, 1743
 1621, 1636, 1637, 1746, 1745
 1622, 1637, 1638, 1747, 1746
 1623, 1638, 1639, 1748, 1747
 1624, 1639, 1640, 1749, 1748
 1625, 1640, 1641, 1750, 1749
 1626, 1641, 1642, 1751, 1750
 1627, 1642, 1643, 1752, 1751
 1628, 1643, 1644, 1753, 1752
 1629, 1644, 1645, 1754, 1753
 1630, 1645, 1646, 1755, 1754
 1631, 1646, 1647, 1756, 1755
 1632, 1647, 1648, 1757, 1756
 1633, 1648, 1649, 1758, 1757
 1634, 1649, 1650, 1759, 1758
 1635, 1650, 1651, 1760, 1759
 1636, 1651, 1652, 1761, 1760
 1637, 1652, 1653, 1762, 1761
 1638, 1653, 1654, 1763, 1762
 1639, 1654, 1655, 1764, 1763
 1640, 1655, 1656, 1765, 1764
 1641, 1656, 1657, 1766, 1765
 1642, 1657, 1658, 1767, 1766
 1643, 1658, 1659, 1768, 1767
 1644, 1659, 1660, 1769, 1768
 1645, 1660, 1661, 1770, 1769
 1646, 1661, 1662, 1771, 1770
 1647, 1662, 1663, 1772, 1771
 1648, 1663, 1664, 1773, 1772
 1649, 1664, 1665, 1774, 1773
 1650, 1665, 1666, 1775, 1774
 1651, 1666, 1667, 1776, 1775
 1652, 1667, 1668, 1777, 1776
 1653, 1668, 1669, 1778, 1777
 1654, 1669, 1670, 1779, 1778
 1655, 1670, 1671, 1780, 1779
 1656, 1671, 1672, 1781, 1780
 1657, 1672, 1673, 1782, 1781
 1658, 1673, 1674, 1783, 1782
 1659, 1674, 1675, 1784, 1783
 1660, 1675, 1676, 1785, 1784
 1661, 1676, 1677, 1786, 1785
 1662, 1677, 1678, 1787, 1786
 1663, 1678, 1679, 1788, 1787
 1664, 1679, 1680, 1789, 1788
 1665, 1680, 1681, 1790, 1789
 1666, 1681, 1682, 1791, 1790
 1667, 1682, 1683, 1792, 1791
 1668, 1683, 1684, 1793, 1792
 1669, 1684, 1685, 1794, 1793
 1670, 1685, 1686, 1795, 1794
 1671, 1686, 1687, 1796, 1795
 1672, 1687, 1688, 1797, 1796
 1673, 1688, 1689, 1798, 1797
 1674, 1689, 1690, 1799, 1798
 1675, 1690, 1691, 1800, 1799
 1676, 1691, 1692, 1801, 1800
 1677, 1692, 1693, 1802, 1801
 1678, 1693, 1694, 1803, 1802
 1679, 1694, 1695, 1804, 1803
 1680, 1695, 1696, 1805, 1804
 1681, 1696, 1697, 1806, 1805
 1682, 1697, 1698, 1807, 1806
 1683, 1698, 1699, 1808, 1807
 1684, 1699, 1700, 1809, 1808
 1685, 1700, 1701, 1810, 1809
 1686, 1701, 1702, 1811, 1810
 1687, 1702, 1703, 1812, 1811
 1688, 1703, 1704, 1813, 1812
 1689, 1704, 1705, 1814, 1813
 1690, 1705, 1706, 1815, 1814
 1691, 1706, 1707, 1816, 1815
 1692, 1707, 1708, 1817, 1816
 1693, 1708, 1709, 1818, 1817
 1694, 1709, 1710, 1819, 1818
 1695, 1710, 1711, 1820, 1819
 1696, 1711, 1712, 1821, 1820
 1697, 1712, 1713, 1822, 1821
 1698, 1713, 1714, 1823, 1822
 1699, 1714, 1715, 1824, 1823
 1700, 1715, 1716, 1825, 1824
 1701, 1716, 1717, 1826, 1825
 1702, 1717, 1718, 1827, 1826
 1703, 1718, 1719, 1828, 1827
 1704, 1719, 1720, 1829, 1828
 1705, 1720, 1721, 1830, 1829
 1706, 1721, 1722, 1831, 1830
 1707, 1722, 1723, 1832, 1831
 1708, 1723, 1724, 1833, 1832
 1709, 1724, 1725, 1834, 1833
 1710, 1725, 1726, 1835, 1834
 1711, 1726, 1727, 1836, 1835
 1712, 1727, 1728, 1837, 1836
 1713, 1728, 1729, 1838, 1837
 1714, 1729, 1730, 1839, 1838
 1715, 1730, 1731, 1840, 1839
 1716, 1731, 1732, 1841, 1840
 1717, 1732, 1733, 1842, 1841
 1718, 1733, 1734, 1843, 1842
 1719, 1734, 1735, 1844, 1843
 1720, 1735, 1736, 1845, 1844
 1721, 1736, 1737, 1846, 1845
 1722, 1737, 1738, 1847, 1846
 1723, 1738, 1739, 1848, 1847
 1724, 1739, 1740, 1849, 1848
 1725, 1740, 1741, 1850, 1849
 1726, 1741, 1742, 1851, 1850
 1727, 1742, 1743, 1852, 1851
 1728, 1743, 1744, 1853, 1852
 1729, 1745, 1746, 1855, 1854
 1730, 1746, 1747, 1856, 1855
 1731, 1747, 1748, 1857, 1856
 1732, 1748, 1749, 1858, 1857
 1733, 1749, 1750, 1859, 1858
 1734, 1750, 1751, 1860, 1859
 1735, 1751, 1752, 1861, 1860
 1736, 1752, 1753, 1862, 1861
 1737, 1753, 1754, 1863, 1862
 1738, 1754, 1755, 1864, 1863
 1739, 1755, 1756, 1865, 1864
 1740, 1756, 1757, 1866, 1865
 1741, 1757, 1758, 1867, 1866
 1742, 1758, 1759, 1868, 1867
 1743, 1759, 1760, 1869, 1868
 1744, 1760, 1761, 1870, 1869
 1745, 1761, 1762, 1871, 1870
 1746, 1762, 1763, 1872, 1871
 1747, 1763, 1764, 1873, 1872
 1748, 1764, 1765, 1874, 1873
 1749, 1765, 1766, 1875, 1874
 1750, 1766, 1767, 1876, 1875
 1751, 1767, 1768, 1877, 1876
 1752, 1768, 1769, 1878, 1877
 1753, 1769, 1770, 1879, 1878
 1754, 1770, 1771, 1880, 1879
 1755, 1771, 1772, 1881, 1880
 1756, 1772, 1773, 1882, 1881
 1757, 1773, 1774, 1883, 1882
 1758, 1774, 1775, 1884, 1883
 1759, 1775, 1776, 1885, 1884
 1760, 1776, 1777, 1886, 1885
 1761, 1777, 1778, 1887, 1886
 1762, 1778, 1779, 1888, 1887
 1763, 1779, 1780, 1889, 1888
 1764, 1780, 1781, 1890, 1889
 1765, 1781, 1782, 1891, 1890
 1766, 1782, 1783, 1892, 1891
 1767, 1783, 1784, 1893, 1892
 1768, 1784, 1785, 1894, 1893
 1769, 1785, 1786, 1895, 1894
 1770, 1786, 1787, 1896, 1895
 1771, 1787, 1788, 1897, 1896
 1772, 1788, 1789, 1898, 1897
 1773, 1789, 1790, 1899, 1898
 1774, 1790, 1791, 1900, 1899
 1775, 1791, 1792, 1901, 1900
 1776, 1792, 1793, 1902, 1901
 1777, 1793, 1794, 1903, 1902
 1778, 1794, 1795, 1904, 1903
 1779, 1795, 1796, 1905, 1904
 1780, 1796, 1797, 1906, 1905
 1781, 1797, 1798, 1907, 1906
 1782, 1798, 1799, 1908, 1907
 1783, 1799, 1800, 1909, 1908
 1784, 1800, 1801, 1910, 1909
 1785, 1801, 1802, 1911, 1910
 1786, 1802, 1803, 1912, 1911
 1787, 1803, 1804, 1913, 1912
 1788, 1804, 1805, 1914, 1913
 1789, 1805, 1806, 1915, 1914
 1790, 1806, 1807, 1916, 1915
 1791, 1807, 1808, 1917, 1916
 1792, 1808, 1809, 1918, 1917
 1793, 1809, 1810, 1919, 1918
 1794, 1810, 1811, 1920, 1919
 1795, 1811, 1812, 1921, 1920
 1796, 1812, 1813, 1922, 1921
 1797, 1813, 1814, 1923, 1922
 1798, 1814, 1815, 1924, 1923
 1799, 1815, 1816, 1925, 1924
 1800, 1816, 1817, 1926, 1925
 1801, 1817, 1818, 1927, 1926
 1802, 1818, 1819, 1928, 1927
 1803, 1819, 1820, 1929, 1928
 1804, 1820, 1821, 1930, 1929
 1805, 1821, 1822, 1931, 1930
 1806, 1822, 1823, 1932, 1931
 1807, 1823, 1824, 1933, 1932
 1808, 1824, 1825, 1934, 1933
 1809, 1825, 1826, 1935, 1934
 1810, 1826, 1827, 1936, 1935
 1811, 1827, 1828, 1937, 1936
 1812, 1828, 1829, 1938, 1937
 1813, 1829, 1830, 1939, 1938
 1814, 1830, 1831, 1940, 1939
 1815, 1831, 1832, 1941, 1940
 1816, 1832, 1833, 1942, 1941
 1817, 1833, 1834, 1943, 1942
 1818, 1834, 1835, 1944, 1943
 1819, 1835, 1836, 1945, 1944
 1820, 1836, 1837, 1946, 1945
 1821, 1837, 1838, 1947, 1946
 1822, 1838, 1839, 1948, 1947
 1823, 1839, 1840, 1949, 1948
 1824, 1840, 1841, 1950, 1949
 1825, 1841, 1842, 1951, 1950
 1826, 1842, 1843, 1952, 1951
 1827, 1843, 1844, 1953, 1952
 1828, 1844, 1845, 1954, 1953
 1829, 1845, 1846, 1955, 1954
 1830, 1846, 1847, 1956, 1955
 1831, 1847, 1848, 1957, 1956
 1832, 1848, 1849, 1958, 1957
 1833, 1849, 1850, 1959, 1958
 1834, 1850, 1851, 1960, 1959
 1835, 1851, 1852, 1961, 1960
 1836, 1852, 1853, 1962, 1961
 1837, 1854, 1855, 1964, 1963
 1838, 1855, 1856, 1965, 1964
 1839, 1856, 1857, 1966, 1965
 1840, 1857, 1858, 1967, 1966
 1841, 1858, 1859, 1968, 1967
 1842, 1859, 1860, 1969, 1968
 1843, 1860, 1861, 1970, 1969
 1844, 1861, 1862, 1971, 1970
 1845, 1862, 1863, 1972, 1971
 1846, 1863, 1864, 1973, 1972
 1847, 1864, 1865, 1974, 1973
 1848, 1865, 1866, 1975, 1974
 1849, 1866, 1867, 1976, 1975
 1850, 1867, 1868, 1977, 1976
 1851, 1868, 1869, 1978, 1977
 1852, 1869, 1870, 1979, 1978
 1853, 1870, 1871, 1980, 1979
 1854, 1871, 1872, 1981, 1980
 1855, 1872, 1873, 1982, 1981
 1856, 1873, 1874, 1983, 1982
 1857, 1874, 1875, 1984, 1983
 1858, 1875, 1876, 1985, 1984
 1859, 1876, 1877, 1986, 1985
 1860, 1877, 1878, 1987, 1986
 1861, 1878, 1879, 1988, 1987
 1862, 1879, 1880, 1989, 1988
 1863, 1880, 1881, 1990, 1989
 1864, 1881, 1882, 1991, 1990
 1865, 1882, 1883, 1992, 1991
 1866, 1883, 1884, 1993, 1992
 1867, 1884, 1885, 1994, 1993
 1868, 1885, 1886, 1995, 1994
 1869, 1886, 1887, 1996, 1995
 1870, 1887, 1888, 1997, 1996
 1871, 1888, 1889, 1998, 1997
 1872, 1889, 1890, 1999, 1998
 1873, 1890, 1891, 2000, 1999
 1874, 1891, 1892, 2001, 2000
 1875, 1892, 1893, 2002, 2001
 1876, 1893, 1894, 2003, 2002
 1877, 1894, 1895, 2004, 2003
 1878, 1895, 1896, 2005, 2004
 1879, 1896, 1897, 2006, 2005
 1880, 1897, 1898, 2007, 2006
 1881, 1898, 1899, 2008, 2007
 1882, 1899, 1900, 2009, 2008
 1883, 1900, 1901, 2010, 2009
 1884, 1901, 1902, 2011, 2010
 1885, 1902, 1903, 2012, 2011
 1886, 1903, 1904, 2013, 2012
 1887, 1904, 1905, 2014, 2013
 1888, 1905, 1906, 2015, 2014
 1889, 1906, 1907, 2016, 2015
 1890, 1907, 1908, 2017, 2016
 1891, 1908, 1909, 2018, 2017
 1892, 1909, 1910, 2019, 2018
 1893, 1910, 1911, 2020, 2019
 1894, 1911, 1912, 2021, 2020
 1895, 1912, 1913, 2022, 2021
 1896, 1913, 1914, 2023, 2022
 1897, 1914, 1915, 2024, 2023
 1898, 1915, 1916, 2025, 2024
 1899, 1916, 1917, 2026, 2025
 1900, 1917, 1918, 2027, 2026
 1901, 1918, 1919, 2028, 2027
 1902, 1919, 1920, 2029, 2028
 1903, 1920, 1921, 2030, 2029
 1904, 1921, 1922, 2031, 2030
 1905, 1922, 1923, 2032, 2031
 1906, 1923, 1924, 2033, 2032
 1907, 1924, 1925, 2034, 2033
 1908, 1925, 1926, 2035, 2034
 1909, 1926, 1927, 2036, 2035
 1910, 1927, 1928, 2037, 2036
 1911, 1928, 1929, 2038, 2037
 1912, 1929, 1930, 2039, 2038
 1913, 1930, 1931, 2040, 2039
 1914, 1931, 1932, 2041, 2040
 1915, 1932, 1933, 2042, 2041
 1916, 1933, 1934, 2043, 2042
 1917, 1934, 1935, 2044, 2043
 1918, 1935, 1936, 2045, 2044
 1919, 1936, 1937, 2046, 2045
 1920, 1937, 1938, 2047, 2046
 1921, 1938, 1939, 2048, 2047
 1922, 1939, 1940, 2049, 2048
 1923, 1940, 1941, 2050, 2049
 1924, 1941, 1942, 2051, 2050
 1925, 1942, 1943, 2052, 2051
 1926, 1943, 1944, 2053, 2052
 1927, 1944, 1945, 2054, 2053
 1928, 1945, 1946, 2055, 2054
 1929, 1946, 1947, 2056, 2055
 1930, 1947, 1948, 2057, 2056
 1931, 1948, 1949, 2058, 2057
 1932, 1949, 1950, 2059, 2058
 1933, 1950, 1951, 2060, 2059
 1934, 1951, 1952, 2061, 2060
 1935, 1952, 1953, 2062, 2061
 1936, 1953, 1954, 2063, 2062
 1937, 1954, 1955, 2064, 2063
 1938, 1955, 1956, 2065, 2064
 1939, 1956, 1957, 2066, 2065
 1940, 1957, 1958, 2067, 2066
 1941, 1958, 1959, 2068, 2067
 1942, 1959, 1960, 2069, 2068
 1943, 1960, 1961, 2070, 2069
 1944, 1961, 1962, 2071, 2070
*ELSET, ELSET=ROW0
 1,2,3,4,5,6,7,8,9,10,11,12,13,14,15,16
 17,18,19,20,21,22,23,24,25,26,27,28,29,30,31,32
 33,34,35,36,37,38,39,40,41,42,43,44,45,46,47,48
 49,50,51,52,53,54,55,56,57,58,59,60,61,62,63,64
 65,66,67,68,69,70,71,72,73,74,75,76,77,78,79,80
 81,82,83,84,85,86,87,88,89,90,91,92,93,94,95,96
 97,98,99,100,101,102,103,104,105,106,107,108
*ELSET, ELSET=ROW1
 109,110,111,112,113,114,115,116,117,118,119,120,121,122,123,124
 125,126,127,128,129,130,131,132,133,134,135,136,137,138,139,140
 141,142,143,144,145,146,147,148,149,150,151,152,153,154,155,156
 157,158,159,160,161,162,163,164,165,166,167,168,169,170,171,172
 173,174,175,176,177,178,179,180,181,182,183,184,185,186,187,188
 189,190,191,192,193,194,195,196,197,198,199,200,201,202,203,204
 205,206,207,208,209,210,211,212,213,214,215,216
*ELSET, ELSET=ROW2
 217,218,219,220,221,222,223,224,225,226,227,228,229,230,231,232
 233,234,235,236,237,238,239,240,241,242,243,244,245,246,247,248
 249,250,251,252,253,254,255,256,257,258,259,260,261,262,263,264
 265,266,267,268,269,270,271,272,273,274,275,276,277,278,279,280
 281,282,283,284,285,286,287,288,289,290,291,292,293,294,295,296
 297,298,299,300,301,302,303,304,305,306,307,308,309,310,311,312
 313,314,315,316,317,318,319,320,321,322,323,324
*ELSET, ELSET=ROW3
 325,326,327,328,329,330,331,332,333,334,335,336,337,338,339,340
 341,342,343,344,345,346,347,348,349,350,351,352,353,354,355,356
 357,358,359,360,361,362,363,364,365,366,367,368,369,370,371,372
 373,374,375,376,377,378,379,380,381,382,383,384,385,386,387,388
 389,390,391,392,393,394,395,396,397,398,399,400,401,402,403,404
 405,406,407,408,409,410,411,412,413,414,415,416,417,418,419,420
 421,422,423,424,425,426,427,428,429,430,431,432
*ELSET, ELSET=ROW4
 433,434,435,436,437,438,439,440,441,442,443,444,445,446,447,448
 449,450,451,452,453,454,455,456,457,458,459,460,461,462,463,464
 465,466,467,468,469,470,471,472,473,474,475,476,477,478,479,480
 481,482,483,484,485,486,487,488,489,490,491,492,493,494,495,496
 497,498,499,500,501,502,503,504,505,506,507,508,509,510,511,512
 513,514,515,516,517,518,519,520,521,522,523,524,525,526,527,528
 529,530,531,532,533,534,535,536,537,538,539,540
*ELSET, ELSET=ROW5
 541,542,543,544,545,546,547,548,549,550,551,552,553,554,555,556
 557,558,559,560,561,562,563,564,565,566,567,568,569,570,571,572
 573,574,575,576,577,578,579,580,581,582,583,584,585,586,587,588
 589,590,591,592,593,594,595,596,597,598,599,600,601,602,603,604
 605,606,607,608,609,610,611,612,613,614,615,616,617,618,619,620
 621,622,623,624,625,626,627,628,629,630,631,632,633,634,635,636
 637,638,639,640,641,642,643,644,645,646,647,648
*ELSET, ELSET=ROW6
 649,650,651,652,653,654,655,656,657,658,659,660,661,662,663,664
 665,666,667,668,669,670,671,672,673,674,675,676,677,678,679,680
 681,682,683,684,685,686,687,688,689,690,691,692,693,694,695,696
 697,698,699,700,701,702,703,704,705,706,707,708,709,710,711,712
 713,714,715,716,717,718,719,720,721,722,723,724,725,726,727,728
 729,730,731,732,733,734,735,736,737,738,739,740,741,742,743,744
 745,746,747,748,749,750,751,752,753,754,755,756
*ELSET, ELSET=ROW7
 757,758,759,760,761,762,763,764,765,766,767,768,769,770,771,772
 773,774,775,776,777,778,779,780,781,782,783,784,785,786,787,788
 789,790,791,792,793,794,795,796,797,798,799,800,801,802,803,804
 805,806,807,808,809,810,811,812,813,814,815,816,817,818,819,820
 821,822,823,824,825,826,827,828,829,830,831,832,833,834,835,836
 837,838,839,840,841,842,843,844,845,846,847,848,849,850,851,852
 853,854,855,856,857,858,859,860,861,862,863,864
*ELSET, ELSET=ROW8
 865,866,867,868,869,870,871,872,873,874,875,876,877,878,879,880
 881,882,883,884,885,886,887,888,889,890,891,892,893,894,895,896
 897,898,899,900,901,902,903,904,905,906,907,908,909,910,911,912
 913,914,915,916,917,918,919,920,921,922,923,924,925,926,927,928
 929,930,931,932,933,934,935,936,937,938,939,940,941,942,943,944
 945,946,947,948,949,950,951,952,953,954,955,956,957,958,959,960
 961,962,963,964,965,966,967,968,969,970,971,972
*ELSET, ELSET=ROW9
 973,974,975,976,977,978,979,980,981,982,983,984,985,986,987,988
 989,990,991,992,993,994,995,996,997,998,999,1000,1001,1002,1003,1004
 1005,1006,1007,1008,1009,1010,1011,1012,1013,1014,1015,1016,1017,1018,1019,1020
 1021,1022,1023,1024,1025,1026,1027,1028,1029,1030,1031,1032,1033,1034,1035,1036
 1037,1038,1039,1040,1041,1042,1043,1044,1045,1046,1047,1048,1049,1050,1051,1052
 1053,1054,1055,1056,1057,1058,1059,1060,1061,1062,1063,1064,1065,1066,1067,1068
 1069,1070,1071,1072,1073,1074,1075,1076,1077,1078,1079,1080
*ELSET, ELSET=ROW10
 1081,1082,1083,1084,1085,1086,1087,1088,1089,1090,1091,1092,1093,1094,1095,1096
 1097,1098,1099,1100,1101,1102,1103,1104,1105,1106,1107,1108,1109,1110,1111,1112
 1113,1114,1115,1116,1117,1118,1119,1120,1121,1122,1123,1124,1125,1126,1127,1128
 1129,1130,1131,1132,1133,1134,1135,1136,1137,1138,1139,1140,1141,1142,1143,1144
 1145,1146,1147,1148,1149,1150,1151,1152,1153,1154,1155,1156,1157,1158,1159,1160
 1161,1162,1163,1164,1165,1166,1167,1168,1169,1170,1171,1172,1173,1174,1175,1176
 1177,1178,1179,1180,1181,1182,1183,1184,1185,1186,1187,1188
*ELSET, ELSET=ROW11
 1189,1190,1191,1192,1193,1194,1195,1196,1197,1198,1199,1200,1201,1202,1203,1204
 1205,1206,1207,1208,1209,1210,1211,1212,1213,1214,1215,1216,1217,1218,1219,1220
 1221,1222,1223,1224,1225,1226,1227,1228,1229,1230,1231,1232,1233,1234,1235,1236
 1237,1238,1239,1240,1241,1242,1243,1244,1245,1246,1247,1248,1249,1250,1251,1252
 1253,1254,1255,1256,1257,1258,1259,1260,1261,1262,1263,1264,1265,1266,1267,1268
 1269,1270,1271,1272,1273,1274,1275,1276,1277,1278,1279,1280,1281,1282,1283,1284
 1285,1286,1287,1288,1289,1290,1291,1292,1293,1294,1295,1296
*ELSET, ELSET=ROW12
 1297,1298,1299,1300,1301,1302,1303,1304,1305,1306,1307,1308,1309,1310,1311,1312
 1313,1314,1315,1316,1317,1318,1319,1320,1321,1322,1323,1324,1325,1326,1327,1328
 1329,1330,1331,1332,1333,1334,1335,1336,1337,1338,1339,1340,1341,1342,1343,1344
 1345,1346,1347,1348,1349,1350,1351,1352,1353,1354,1355,1356,1357,1358,1359,1360
 1361,1362,1363,1364,1365,1366,1367,1368,1369,1370,1371,1372,1373,1374,1375,1376
 1377,1378,1379,1380,1381,1382,1383,1384,1385,1386,1387,1388,1389,1390,1391,1392
 1393,1394,1395,1396,1397,1398,1399,1400,1401,1402,1403,1404
*ELSET, ELSET=ROW13
 1405,1406,1407,1408,1409,1410,1411,1412,1413,1414,1415,1416,1417,1418,1419,1420
 1421,1422,1423,1424,1425,1426,1427,1428,1429,1430,1431,1432,1433,1434,1435,1436
 1437,1438,1439,1440,1441,1442,1443,1444,1445,1446,1447,1448,1449,1450,1451,1452
 1453,1454,1455,1456,1457,1458,1459,1460,1461,1462,1463,1464,1465,1466,1467,1468
 1469,1470,1471,1472,1473,1474,1475,1476,1477,1478,1479,1480,1481,1482,1483,1484
 1485,1486,1487,1488,1489,1490,1491,1492,1493,1494,1495,1496,1497,1498,1499,1500
 1501,1502,1503,1504,1505,1506,1507,1508,1509,1510,1511,1512
*ELSET, ELSET=ROW14
 1513,1514,1515,1516,1517,1518,1519,1520,1521,1522,1523,1524,1525,1526,1527,1528
 1529,1530,1531,1532,1533,1534,1535,1536,1537,1538,1539,1540,1541,1542,1543,1544
 1545,1546,1547,1548,1549,1550,1551,1552,1553,1554,1555,1556,1557,1558,1559,1560
 1561,1562,1563,1564,1565,1566,1567,1568,1569,1570,1571,1572,1573,1574,1575,1576
 1577,1578,1579,1580,1581,1582,1583,1584,1585,1586,1587,1588,1589,1590,1591,1592
 1593,1594,1595,1596,1597,1598,1599,1600,1601,1602,1603,1604,1605,1606,1607,1608
 1609,1610,1611,1612,1613,1614,1615,1616,1617,1618,1619,1620
*ELSET, ELSET=ROW15
 1621,1622,1623,1624,1625,1626,1627,1628,1629,1630,1631,1632,1633,1634,1635,1636
 1637,1638,1639,1640,1641,1642,1643,1644,1645,1646,1647,1648,1649,1650,1651,1652
 1653,1654,1655,1656,1657,1658,1659,1660,1661,1662,1663,1664,1665,1666,1667,1668
 1669,1670,1671,1672,1673,1674,1675,1676,1677,1678,1679,1680,1681,1682,1683,1684
 1685,1686,1687,1688,1689,1690,1691,1692,1693,1694,1695,1696,1697,1698,1699,1700
 1701,1702,1703,1704,1705,1706,1707,1708,1709,1710,1711,1712,1713,1714,1715,1716
 1717,1718,1719,1720,1721,1722,1723,1724,1725,1726,1727,1728
*ELSET, ELSET=ROW16
 1729,1730,1731,1732,1733,1734,1735,1736,1737,1738,1739,1740,1741,1742,1743,1744
 1745,1746,1747,1748,1749,1750,1751,1752,1753,1754,1755,1756,1757,1758,1759,1760
 1761,1762,1763,1764,1765,1766,1767,1768,1769,1770,1771,1772,1773,1774,1775,1776
 1777,1778,1779,1780,1781,1782,1783,1784,1785,1786,1787,1788,1789,1790,1791,1792
 1793,1794,1795,1796,1797,1798,1799,1800,1801,1802,1803,1804,1805,1806,1807,1808
 1809,1810,1811,1812,1813,1814,1815,1816,1817,1818,1819,1820,1821,1822,1823,1824
 1825,1826,1827,1828,1829,1830,1831,1832,1833,1834,1835,1836
*ELSET, ELSET=ROW17
 1837,1838,1839,1840,1841,1842,1843,1844,1845,1846,1847,1848,1849,1850,1851,1852
 1853,1854,1855,1856,1857,1858,1859,1860,1861,1862,1863,1864,1865,1866,1867,1868
 1869,1870,1871,1872,1873,1874,1875,1876,1877,1878,1879,1880,1881,1882,1883,1884
 1885,1886,1887,1888,1889,1890,1891,1892,1893,1894,1895,1896,1897,1898,1899,1900
 1901,1902,1903,1904,1905,1906,1907,1908,1909,1910,1911,1912,1913,1914,1915,1916
 1917,1918,1919,1920,1921,1922,1923,1924,1925,1926,1927,1928,1929,1930,1931,1932
 1933,1934,1935,1936,1937,1938,1939,1940,1941,1942,1943,1944
*ORIENTATION, NAME=ORI, SYSTEM=RECTANGULAR, DEFINITION=COORDINATES
 1.0, 0.0, 0.0, 0.0, 1.0, 0.0
 3, 0.0
*SOLID SECTION, ELSET=ROW0, MATERIAL=MAT0, ORIENTATION=ORI
*SOLID SECTION, ELSET=ROW1, MATERIAL=MAT1, ORIENTATION=ORI
*SOLID SECTION, ELSET=ROW2, MATERIAL=MAT2, ORIENTATION=ORI
*SOLID SECTION, ELSET=ROW3, MATERIAL=MAT3, ORIENTATION=ORI
*SOLID SECTION, ELSET=ROW4, MATERIAL=MAT4, ORIENTATION=ORI
*SOLID SECTION, ELSET=ROW5, MATERIAL=MAT5, ORIENTATION=ORI
*SOLID SECTION, ELSET=ROW6, MATERIAL=MAT6, ORIENTATION=ORI
*SOLID SECTION, ELSET=ROW7, MATERIAL=MAT7, ORIENTATION=ORI
*SOLID SECTION, ELSET=ROW8, MATERIAL=MAT8, ORIENTATION=ORI
*SOLID SECTION, ELSET=ROW9, MATERIAL=MAT9, ORIENTATION=ORI
*SOLID SECTION, ELSET=ROW10, MATERIAL=MAT10, ORIENTATION=ORI
*SOLID SECTION, ELSET=ROW11, MATERIAL=MAT11, ORIENTATION=ORI
*SOLID SECTION, ELSET=ROW12, MATERIAL=MAT12, ORIENTATION=ORI
*SOLID SECTION, ELSET=ROW13, MATERIAL=MAT13, ORIENTATION=ORI
*SOLID SECTION, ELSET=ROW14, MATERIAL=MAT14, ORIENTATION=ORI
*SOLID SECTION, ELSET=ROW15, MATERIAL=MAT15, ORIENTATION=ORI
*SOLID SECTION, ELSET=ROW16, MATERIAL=MAT16, ORIENTATION=ORI
*SOLID SECTION, ELSET=ROW17, MATERIAL=MAT17, ORIENTATION=ORI
*MATERIAL, NAME=MAT0
*ELASTIC
 5000.0, 0.450
*EXPANSION, TYPE=ORTHO, ZERO=0.0
 0.000000, 0.000000, 0.000000
*MATERIAL, NAME=MAT1
*ELASTIC
 5000.0, 0.450
*EXPANSION, TYPE=ORTHO, ZERO=0.0
 0.063270, 0.063270, 0.063270
*MATERIAL, NAME=MAT2
*ELASTIC
 5000.0, 0.450
*EXPANSION, TYPE=ORTHO, ZERO=0.0
 0.338826, 0.338826, 0.338826
*MATERIAL, NAME=MAT3
*ELASTIC
 5000.0, 0.450
*EXPANSION, TYPE=ORTHO, ZERO=0.0
 0.230409, 0.230409, 0.230409
*MATERIAL, NAME=MAT4
*ELASTIC
 5000.0, 0.450
*EXPANSION, TYPE=ORTHO, ZERO=0.0
 0.000000, 0.000000, 0.000000
*MATERIAL, NAME=MAT5
*ELASTIC
 5000.0, 0.450
*EXPANSION, TYPE=ORTHO, ZERO=0.0
 0.000000, 0.000000, 0.000000
*MATERIAL, NAME=MAT6
*ELASTIC
 5000.0, 0.450
*EXPANSION, TYPE=ORTHO, ZERO=0.0
 0.000000, 0.000000, 0.000000
*MATERIAL, NAME=MAT7
*ELASTIC
 5000.0, 0.450
*EXPANSION, TYPE=ORTHO, ZERO=0.0
 0.000000, 0.000000, 0.000000
*MATERIAL, NAME=MAT8
*ELASTIC
 5000.0, 0.450
*EXPANSION, TYPE=ORTHO, ZERO=0.0
 0.000000, 0.000000, 0.000000
*MATERIAL, NAME=MAT9
*ELASTIC
 5000.0, 0.450
*EXPANSION, TYPE=ORTHO, ZERO=0.0
 0.002380, 0.002380, 0.002380
*MATERIAL, NAME=MAT10
*ELASTIC
 5000.0, 0.450
*EXPANSION, TYPE=ORTHO, ZERO=0.0
 0.041648, 0.041648, 0.041648
*MATERIAL, NAME=MAT11
*ELASTIC
 5000.0, 0.450
*EXPANSION, TYPE=ORTHO, ZERO=0.0
 0.072966, 0.072966, 0.072966
*MATERIAL, NAME=MAT12
*ELASTIC
 5000.0, 0.450
*EXPANSION, TYPE=ORTHO, ZERO=0.0
 0.094819, 0.094819, 0.094819
*MATERIAL, NAME=MAT13
*ELASTIC
 5000.0, 0.450
*EXPANSION, TYPE=ORTHO, ZERO=0.0
 0.105379, 0.105379, 0.105379
*MATERIAL, NAME=MAT14
*ELASTIC
 5000.0, 0.450
*EXPANSION, TYPE=ORTHO, ZERO=0.0
 0.113738, 0.113738, 0.113738
*MATERIAL, NAME=MAT15
*ELASTIC
 5000.0, 0.450
*EXPANSION, TYPE=ORTHO, ZERO=0.0
 0.120802, 0.120802, 0.120802
*MATERIAL, NAME=MAT16
*ELASTIC
 5000.0, 0.450
*EXPANSION, TYPE=ORTHO, ZERO=0.0
 0.128567, 0.128567, 0.128567
*MATERIAL, NAME=MAT17
*ELASTIC
 5000.0, 0.450
*EXPANSION, TYPE=ORTHO, ZERO=0.0
 0.132719, 0.132719, 0.132719
*NSET, NSET=BOTTOM
 1,2,3,4,5,6,7,8,9,10,11,12,13,14,15,16
 17,18,19,20,21,22,23,24,25,26,27,28,29,30,31,32
 33,34,35,36,37,38,39,40,41,42,43,44,45,46,47,48
 49,50,51,52,53,54,55,56,57,58,59,60,61,62,63,64
 65,66,67,68,69,70,71,72,73,74,75,76,77,78,79,80
 81,82,83,84,85,86,87,88,89,90,91,92,93,94,95,96
 97,98,99,100,101,102,103,104,105,106,107,108,109
*NSET, NSET=LEFT
 1,110,219,328,437,546,655,764,873,982,1091,1200,1309,1418,1527,1636
 1745,1854,1963
*NSET, NSET=RIGHT
 109,218,327,436,545,654,763,872,981,1090,1199,1308,1417,1526,1635,1744
 1853,1962,2071
*NSET, NSET=ALLN
 1,2,3,4,5,6,7,8,9,10,11,12,13,14,15,16
 17,18,19,20,21,22,23,24,25,26,27,28,29,30,31,32
 33,34,35,36,37,38,39,40,41,42,43,44,45,46,47,48
 49,50,51,52,53,54,55,56,57,58,59,60,61,62,63,64
 65,66,67,68,69,70,71,72,73,74,75,76,77,78,79,80
 81,82,83,84,85,86,87,88,89,90,91,92,93,94,95,96
 97,98,99,100,101,102,103,104,105,106,107,108,109,110,111,112
 113,114,115,116,117,118,119,120,121,122,123,124,125,126,127,128
 129,130,131,132,133,134,135,136,137,138,139,140,141,142,143,144
 145,146,147,148,149,150,151,152,153,154,155,156,157,158,159,160
 161,162,163,164,165,166,167,168,169,170,171,172,173,174,175,176
 177,178,179,180,181,182,183,184,185,186,187,188,189,190,191,192
 193,194,195,196,197,198,199,200,201,202,203,204,205,206,207,208
 209,210,211,212,213,214,215,216,217,218,219,220,221,222,223,224
 225,226,227,228,229,230,231,232,233,234,235,236,237,238,239,240
 241,242,243,244,245,246,247,248,249,250,251,252,253,254,255,256
 257,258,259,260,261,262,263,264,265,266,267,268,269,270,271,272
 273,274,275,276,277,278,279,280,281,282,283,284,285,286,287,288
 289,290,291,292,293,294,295,296,297,298,299,300,301,302,303,304
 305,306,307,308,309,310,311,312,313,314,315,316,317,318,319,320
 321,322,323,324,325,326,327,328,329,330,331,332,333,334,335,336
 337,338,339,340,341,342,343,344,345,346,347,348,349,350,351,352
 353,354,355,356,357,358,359,360,361,362,363,364,365,366,367,368
 369,370,371,372,373,374,375,376,377,378,379,380,381,382,383,384
 385,386,387,388,389,390,391,392,393,394,395,396,397,398,399,400
 401,402,403,404,405,406,407,408,409,410,411,412,413,414,415,416
 417,418,419,420,421,422,423,424,425,426,427,428,429,430,431,432
 433,434,435,436,437,438,439,440,441,442,443,444,445,446,447,448
 449,450,451,452,453,454,455,456,457,458,459,460,461,462,463,464
 465,466,467,468,469,470,471,472,473,474,475,476,477,478,479,480
 481,482,483,484,485,486,487,488,489,490,491,492,493,494,495,496
 497,498,499,500,501,502,503,504,505,506,507,508,509,510,511,512
 513,514,515,516,517,518,519,520,521,522,523,524,525,526,527,528
 529,530,531,532,533,534,535,536,537,538,539,540,541,542,543,544
 545,546,547,548,549,550,551,552,553,554,555,556,557,558,559,560
 561,562,563,564,565,566,567,568,569,570,571,572,573,574,575,576
 577,578,579,580,581,582,583,584,585,586,587,588,589,590,591,592
 593,594,595,596,597,598,599,600,601,602,603,604,605,606,607,608
 609,610,611,612,613,614,615,616,617,618,619,620,621,622,623,624
 625,626,627,628,629,630,631,632,633,634,635,636,637,638,639,640
 641,642,643,644,645,646,647,648,649,650,651,652,653,654,655,656
 657,658,659,660,661,662,663,664,665,666,667,668,669,670,671,672
 673,674,675,676,677,678,679,680,681,682,683,684,685,686,687,688
 689,690,691,692,693,694,695,696,697,698,699,700,701,702,703,704
 705,706,707,708,709,710,711,712,713,714,715,716,717,718,719,720
 721,722,723,724,725,726,727,728,729,730,731,732,733,734,735,736
 737,738,739,740,741,742,743,744,745,746,747,748,749,750,751,752
 753,754,755,756,757,758,759,760,761,762,763,764,765,766,767,768
 769,770,771,772,773,774,775,776,777,778,779,780,781,782,783,784
 785,786,787,788,789,790,791,792,793,794,795,796,797,798,799,800
 801,802,803,804,805,806,807,808,809,810,811,812,813,814,815,816
 817,818,819,820,821,822,823,824,825,826,827,828,829,830,831,832
 833,834,835,836,837,838,839,840,841,842,843,844,845,846,847,848
 849,850,851,852,853,854,855,856,857,858,859,860,861,862,863,864
 865,866,867,868,869,870,871,872,873,874,875,876,877,878,879,880
 881,882,883,884,885,886,887,888,889,890,891,892,893,894,895,896
 897,898,899,900,901,902,903,904,905,906,907,908,909,910,911,912
 913,914,915,916,917,918,919,920,921,922,923,924,925,926,927,928
 929,930,931,932,933,934,935,936,937,938,939,940,941,942,943,944
 945,946,947,948,949,950,951,952,953,954,955,956,957,958,959,960
 961,962,963,964,965,966,967,968,969,970,971,972,973,974,975,976
 977,978,979,980,981,982,983,984,985,986,987,988,989,990,991,992
 993,994,995,996,997,998,999,1000,1001,1002,1003,1004,1005,1006,1007,1008
 1009,1010,1011,1012,1013,1014,1015,1016,1017,1018,1019,1020,1021,1022,1023,1024
 1025,1026,1027,1028,1029,1030,1031,1032,1033,1034,1035,1036,1037,1038,1039,1040
 1041,1042,1043,1044,1045,1046,1047,1048,1049,1050,1051,1052,1053,1054,1055,1056
 1057,1058,1059,1060,1061,1062,1063,1064,1065,1066,1067,1068,1069,1070,1071,1072
 1073,1074,1075,1076,1077,1078,1079,1080,1081,1082,1083,1084,1085,1086,1087,1088
 1089,1090,1091,1092,1093,1094,1095,1096,1097,1098,1099,1100,1101,1102,1103,1104
 1105,1106,1107,1108,1109,1110,1111,1112,1113,1114,1115,1116,1117,1118,1119,1120
 1121,1122,1123,1124,1125,1126,1127,1128,1129,1130,1131,1132,1133,1134,1135,1136
 1137,1138,1139,1140,1141,1142,1143,1144,1145,1146,1147,1148,1149,1150,1151,1152
 1153,1154,1155,1156,1157,1158,1159,1160,1161,1162,1163,1164,1165,1166,1167,1168
 1169,1170,1171,1172,1173,1174,1175,1176,1177,1178,1179,1180,1181,1182,1183,1184
 1185,1186,1187,1188,1189,1190,1191,1192,1193,1194,1195,1196,1197,1198,1199,1200
 1201,1202,1203,1204,1205,1206,1207,1208,1209,1210,1211,1212,1213,1214,1215,1216
 1217,1218,1219,1220,1221,1222,1223,1224,1225,1226,1227,1228,1229,1230,1231,1232
 1233,1234,1235,1236,1237,1238,1239,1240,1241,1242,1243,1244,1245,1246,1247,1248
 1249,1250,1251,1252,1253,1254,1255,1256,1257,1258,1259,1260,1261,1262,1263,1264
 1265,1266,1267,1268,1269,1270,1271,1272,1273,1274,1275,1276,1277,1278,1279,1280
 1281,1282,1283,1284,1285,1286,1287,1288,1289,1290,1291,1292,1293,1294,1295,1296
 1297,1298,1299,1300,1301,1302,1303,1304,1305,1306,1307,1308,1309,1310,1311,1312
 1313,1314,1315,1316,1317,1318,1319,1320,1321,1322,1323,1324,1325,1326,1327,1328
 1329,1330,1331,1332,1333,1334,1335,1336,1337,1338,1339,1340,1341,1342,1343,1344
 1345,1346,1347,1348,1349,1350,1351,1352,1353,1354,1355,1356,1357,1358,1359,1360
 1361,1362,1363,1364,1365,1366,1367,1368,1369,1370,1371,1372,1373,1374,1375,1376
 1377,1378,1379,1380,1381,1382,1383,1384,1385,1386,1387,1388,1389,1390,1391,1392
 1393,1394,1395,1396,1397,1398,1399,1400,1401,1402,1403,1404,1405,1406,1407,1408
 1409,1410,1411,1412,1413,1414,1415,1416,1417,1418,1419,1420,1421,1422,1423,1424
 1425,1426,1427,1428,1429,1430,1431,1432,1433,1434,1435,1436,1437,1438,1439,1440
 1441,1442,1443,1444,1445,1446,1447,1448,1449,1450,1451,1452,1453,1454,1455,1456
 1457,1458,1459,1460,1461,1462,1463,1464,1465,1466,1467,1468,1469,1470,1471,1472
 1473,1474,1475,1476,1477,1478,1479,1480,1481,1482,1483,1484,1485,1486,1487,1488
 1489,1490,1491,1492,1493,1494,1495,1496,1497,1498,1499,1500,1501,1502,1503,1504
 1505,1506,1507,1508,1509,1510,1511,1512,1513,1514,1515,1516,1517,1518,1519,1520
 1521,1522,1523,1524,1525,1526,1527,1528,1529,1530,1531,1532,1533,1534,1535,1536
 1537,1538,1539,1540,1541,1542,1543,1544,1545,1546,1547,1548,1549,1550,1551,1552
 1553,1554,1555,1556,1557,1558,1559,1560,1561,1562,1563,1564,1565,1566,1567,1568
 1569,1570,1571,1572,1573,1574,1575,1576,1577,1578,1579,1580,1581,1582,1583,1584
 1585,1586,1587,1588,1589,1590,1591,1592,1593,1594,1595,1596,1597,1598,1599,1600
 1601,1602,1603,1604,1605,1606,1607,1608,1609,1610,1611,1612,1613,1614,1615,1616
 1617,1618,1619,1620,1621,1622,1623,1624,1625,1626,1627,1628,1629,1630,1631,1632
 1633,1634,1635,1636,1637,1638,1639,1640,1641,1642,1643,1644,1645,1646,1647,1648
 1649,1650,1651,1652,1653,1654,1655,1656,1657,1658,1659,1660,1661,1662,1663,1664
 1665,1666,1667,1668,1669,1670,1671,1672,1673,1674,1675,1676,1677,1678,1679,1680
 1681,1682,1683,1684,1685,1686,1687,1688,1689,1690,1691,1692,1693,1694,1695,1696
 1697,1698,1699,1700,1701,1702,1703,1704,1705,1706,1707,1708,1709,1710,1711,1712
 1713,1714,1715,1716,1717,1718,1719,1720,1721,1722,1723,1724,1725,1726,1727,1728
 1729,1730,1731,1732,1733,1734,1735,1736,1737,1738,1739,1740,1741,1742,1743,1744
 1745,1746,1747,1748,1749,1750,1751,1752,1753,1754,1755,1756,1757,1758,1759,1760
 1761,1762,1763,1764,1765,1766,1767,1768,1769,1770,1771,1772,1773,1774,1775,1776
 1777,1778,1779,1780,1781,1782,1783,1784,1785,1786,1787,1788,1789,1790,1791,1792
 1793,1794,1795,1796,1797,1798,1799,1800,1801,1802,1803,1804,1805,1806,1807,1808
 1809,1810,1811,1812,1813,1814,1815,1816,1817,1818,1819,1820,1821,1822,1823,1824
 1825,1826,1827,1828,1829,1830,1831,1832,1833,1834,1835,1836,1837,1838,1839,1840
 1841,1842,1843,1844,1845,1846,1847,1848,1849,1850,1851,1852,1853,1854,1855,1856
 1857,1858,1859,1860,1861,1862,1863,1864,1865,1866,1867,1868,1869,1870,1871,1872
 1873,1874,1875,1876,1877,1878,1879,1880,1881,1882,1883,1884,1885,1886,1887,1888
 1889,1890,1891,1892,1893,1894,1895,1896,1897,1898,1899,1900,1901,1902,1903,1904
 1905,1906,1907,1908,1909,1910,1911,1912,1913,1914,1915,1916,1917,1918,1919,1920
 1921,1922,1923,1924,1925,1926,1927,1928,1929,1930,1931,1932,1933,1934,1935,1936
 1937,1938,1939,1940,1941,1942,1943,1944,1945,1946,1947,1948,1949,1950,1951,1952
 1953,1954,1955,1956,1957,1958,1959,1960,1961,1962,1963,1964,1965,1966,1967,1968
 1969,1970,1971,1972,1973,1974,1975,1976,1977,1978,1979,1980,1981,1982,1983,1984
 1985,1986,1987,1988,1989,1990,1991,1992,1993,1994,1995,1996,1997,1998,1999,2000
 2001,2002,2003,2004,2005,2006,2007,2008,2009,2010,2011,2012,2013,2014,2015,2016
 2017,2018,2019,2020,2021,2022,2023,2024,2025,2026,2027,2028,2029,2030,2031,2032
 2033,2034,2035,2036,2037,2038,2039,2040,2041,2042,2043,2044,2045,2046,2047,2048
 2049,2050,2051,2052,2053,2054,2055,2056,2057,2058,2059,2060,2061,2062,2063,2064
 2065,2066,2067,2068,2069,2070,2071
*INITIAL CONDITIONS, TYPE=TEMPERATURE
 ALLN, 0.0
*BOUNDARY
 BOTTOM, 1, 2
*STEP
 Confined depth growth via thermal eigenstrain -> interface residual stress
*STATIC
*TEMPERATURE
 ALLN, 1.0
*OUTPUT, FIELD
*NODE OUTPUT
 U
*ELEMENT OUTPUT, POSITION=CENTROID
 S, COORD
*END STEP
