*HEADING
 Implant-thread biofilm eigenstrain deck: cond=DH profile=thread amp=0.180 (CPE4, no UMAT)
*NODE
 1, 0.000000, 0.000000
 2, 0.020833, 0.008092
 3, 0.041667, 0.028067
 4, 0.062500, 0.049529
 5, 0.083333, 0.062058
 6, 0.104167, 0.061276
 7, 0.125000, 0.051360
 8, 0.145833, 0.042534
 9, 0.166667, 0.045000
 10, 0.187500, 0.062881
 11, 0.208333, 0.091706
 12, 0.229167, 0.120930
 13, 0.250000, 0.140000
 14, 0.270833, 0.144425
 15, 0.291667, 0.138294
 16, 0.312500, 0.131764
 17, 0.333333, 0.135000
 18, 0.354167, 0.152111
 19, 0.375000, 0.178640
 20, 0.395833, 0.204079
 21, 0.416667, 0.217942
 22, 0.437500, 0.215827
 23, 0.458333, 0.201933
 24, 0.479167, 0.186552
 25, 0.500000, 0.180000
 26, 0.520833, 0.186552
 27, 0.541667, 0.201933
 28, 0.562500, 0.215827
 29, 0.583333, 0.217942
 30, 0.604167, 0.204079
 31, 0.625000, 0.178640
 32, 0.645833, 0.152111
 33, 0.666667, 0.135000
 34, 0.687500, 0.131764
 35, 0.708333, 0.138294
 36, 0.729167, 0.144425
 37, 0.750000, 0.140000
 38, 0.770833, 0.120930
 39, 0.791667, 0.091706
 40, 0.812500, 0.062881
 41, 0.833333, 0.045000
 42, 0.854167, 0.042534
 43, 0.875000, 0.051360
 44, 0.895833, 0.061276
 45, 0.916667, 0.062058
 46, 0.937500, 0.049529
 47, 0.958333, 0.028067
 48, 0.979167, 0.008092
 49, 1.000000, 0.000000
 50, 1.020833, 0.008092
 51, 1.041667, 0.028067
 52, 1.062500, 0.049529
 53, 1.083333, 0.062058
 54, 1.104167, 0.061276
 55, 1.125000, 0.051360
 56, 1.145833, 0.042534
 57, 1.166667, 0.045000
 58, 1.187500, 0.062881
 59, 1.208333, 0.091706
 60, 1.229167, 0.120930
 61, 1.250000, 0.140000
 62, 1.270833, 0.144425
 63, 1.291667, 0.138294
 64, 1.312500, 0.131764
 65, 1.333333, 0.135000
 66, 1.354167, 0.152111
 67, 1.375000, 0.178640
 68, 1.395833, 0.204079
 69, 1.416667, 0.217942
 70, 1.437500, 0.215827
 71, 1.458333, 0.201933
 72, 1.479167, 0.186552
 73, 1.500000, 0.180000
 74, 1.520833, 0.186552
 75, 1.541667, 0.201933
 76, 1.562500, 0.215827
 77, 1.583333, 0.217942
 78, 1.604167, 0.204079
 79, 1.625000, 0.178640
 80, 1.645833, 0.152111
 81, 1.666667, 0.135000
 82, 1.687500, 0.131764
 83, 1.708333, 0.138294
 84, 1.729167, 0.144425
 85, 1.750000, 0.140000
 86, 1.770833, 0.120930
 87, 1.791667, 0.091706
 88, 1.812500, 0.062881
 89, 1.833333, 0.045000
 90, 1.854167, 0.042534
 91, 1.875000, 0.051360
 92, 1.895833, 0.061276
 93, 1.916667, 0.062058
 94, 1.937500, 0.049529
 95, 1.958333, 0.028067
 96, 1.979167, 0.008092
 97, 2.000000, 0.000000
 98, 2.020833, 0.008092
 99, 2.041667, 0.028067
 100, 2.062500, 0.049529
 101, 2.083333, 0.062058
 102, 2.104167, 0.061276
 103, 2.125000, 0.051360
 104, 2.145833, 0.042534
 105, 2.166667, 0.045000
 106, 2.187500, 0.062881
 107, 2.208333, 0.091706
 108, 2.229167, 0.120930
 109, 2.250000, 0.140000
 110, 2.270833, 0.144425
 111, 2.291667, 0.138294
 112, 2.312500, 0.131764
 113, 2.333333, 0.135000
 114, 2.354167, 0.152111
 115, 2.375000, 0.178640
 116, 2.395833, 0.204079
 117, 2.416667, 0.217942
 118, 2.437500, 0.215827
 119, 2.458333, 0.201933
 120, 2.479167, 0.186552
 121, 2.500000, 0.180000
 122, 2.520833, 0.186552
 123, 2.541667, 0.201933
 124, 2.562500, 0.215827
 125, 2.583333, 0.217942
 126, 2.604167, 0.204079
 127, 2.625000, 0.178640
 128, 2.645833, 0.152111
 129, 2.666667, 0.135000
 130, 2.687500, 0.131764
 131, 2.708333, 0.138294
 132, 2.729167, 0.144425
 133, 2.750000, 0.140000
 134, 2.770833, 0.120930
 135, 2.791667, 0.091706
 136, 2.812500, 0.062881
 137, 2.833333, 0.045000
 138, 2.854167, 0.042534
 139, 2.875000, 0.051360
 140, 2.895833, 0.061276
 141, 2.916667, 0.062058
 142, 2.937500, 0.049529
 143, 2.958333, 0.028067
 144, 2.979167, 0.008092
 145, 3.000000, 0.000000
 146, 0.000000, 0.055556
 147, 0.020833, 0.063648
 148, 0.041667, 0.083622
 149, 0.062500, 0.105084
 150, 0.083333, 0.117613
 151, 0.104167, 0.116831
 152, 0.125000, 0.106916
 153, 0.145833, 0.098089
 154, 0.166667, 0.100556
 155, 0.187500, 0.118436
 156, 0.208333, 0.147262
 157, 0.229167, 0.176486
 158, 0.250000, 0.195556
 159, 0.270833, 0.199981
 160, 0.291667, 0.193849
 161, 0.312500, 0.187319
 162, 0.333333, 0.190556
 163, 0.354167, 0.207666
 164, 0.375000, 0.234195
 165, 0.395833, 0.259635
 166, 0.416667, 0.273498
 167, 0.437500, 0.271382
 168, 0.458333, 0.257489
 169, 0.479167, 0.242108
 170, 0.500000, 0.235556
 171, 0.520833, 0.242108
 172, 0.541667, 0.257489
 173, 0.562500, 0.271382
 174, 0.583333, 0.273498
 175, 0.604167, 0.259635
 176, 0.625000, 0.234195
 177, 0.645833, 0.207666
 178, 0.666667, 0.190556
 179, 0.687500, 0.187319
 180, 0.708333, 0.193849
 181, 0.729167, 0.199981
 182, 0.750000, 0.195556
 183, 0.770833, 0.176486
 184, 0.791667, 0.147262
 185, 0.812500, 0.118436
 186, 0.833333, 0.100556
 187, 0.854167, 0.098089
 188, 0.875000, 0.106916
 189, 0.895833, 0.116831
 190, 0.916667, 0.117613
 191, 0.937500, 0.105084
 192, 0.958333, 0.083622
 193, 0.979167, 0.063648
 194, 1.000000, 0.055556
 195, 1.020833, 0.063648
 196, 1.041667, 0.083622
 197, 1.062500, 0.105084
 198, 1.083333, 0.117613
 199, 1.104167, 0.116831
 200, 1.125000, 0.106916
 201, 1.145833, 0.098089
 202, 1.166667, 0.100556
 203, 1.187500, 0.118436
 204, 1.208333, 0.147262
 205, 1.229167, 0.176486
 206, 1.250000, 0.195556
 207, 1.270833, 0.199981
 208, 1.291667, 0.193849
 209, 1.312500, 0.187319
 210, 1.333333, 0.190556
 211, 1.354167, 0.207666
 212, 1.375000, 0.234195
 213, 1.395833, 0.259635
 214, 1.416667, 0.273498
 215, 1.437500, 0.271382
 216, 1.458333, 0.257489
 217, 1.479167, 0.242108
 218, 1.500000, 0.235556
 219, 1.520833, 0.242108
 220, 1.541667, 0.257489
 221, 1.562500, 0.271382
 222, 1.583333, 0.273498
 223, 1.604167, 0.259635
 224, 1.625000, 0.234195
 225, 1.645833, 0.207666
 226, 1.666667, 0.190556
 227, 1.687500, 0.187319
 228, 1.708333, 0.193849
 229, 1.729167, 0.199981
 230, 1.750000, 0.195556
 231, 1.770833, 0.176486
 232, 1.791667, 0.147262
 233, 1.812500, 0.118436
 234, 1.833333, 0.100556
 235, 1.854167, 0.098089
 236, 1.875000, 0.106916
 237, 1.895833, 0.116831
 238, 1.916667, 0.117613
 239, 1.937500, 0.105084
 240, 1.958333, 0.083622
 241, 1.979167, 0.063648
 242, 2.000000, 0.055556
 243, 2.020833, 0.063648
 244, 2.041667, 0.083622
 245, 2.062500, 0.105084
 246, 2.083333, 0.117613
 247, 2.104167, 0.116831
 248, 2.125000, 0.106916
 249, 2.145833, 0.098089
 250, 2.166667, 0.100556
 251, 2.187500, 0.118436
 252, 2.208333, 0.147262
 253, 2.229167, 0.176486
 254, 2.250000, 0.195556
 255, 2.270833, 0.199981
 256, 2.291667, 0.193849
 257, 2.312500, 0.187319
 258, 2.333333, 0.190556
 259, 2.354167, 0.207666
 260, 2.375000, 0.234195
 261, 2.395833, 0.259635
 262, 2.416667, 0.273498
 263, 2.437500, 0.271382
 264, 2.458333, 0.257489
 265, 2.479167, 0.242108
 266, 2.500000, 0.235556
 267, 2.520833, 0.242108
 268, 2.541667, 0.257489
 269, 2.562500, 0.271382
 270, 2.583333, 0.273498
 271, 2.604167, 0.259635
 272, 2.625000, 0.234195
 273, 2.645833, 0.207666
 274, 2.666667, 0.190556
 275, 2.687500, 0.187319
 276, 2.708333, 0.193849
 277, 2.729167, 0.199981
 278, 2.750000, 0.195556
 279, 2.770833, 0.176486
 280, 2.791667, 0.147262
 281, 2.812500, 0.118436
 282, 2.833333, 0.100556
 283, 2.854167, 0.098089
 284, 2.875000, 0.106916
 285, 2.895833, 0.116831
 286, 2.916667, 0.117613
 287, 2.937500, 0.105084
 288, 2.958333, 0.083622
 289, 2.979167, 0.063648
 290, 3.000000, 0.055556
 291, 0.000000, 0.111111
 292, 0.020833, 0.119203
 293, 0.041667, 0.139178
 294, 0.062500, 0.160640
 295, 0.083333, 0.173169
 296, 0.104167, 0.172387
 297, 0.125000, 0.162472
 298, 0.145833, 0.153645
 299, 0.166667, 0.156111
 300, 0.187500, 0.173992
 301, 0.208333, 0.202817
 302, 0.229167, 0.232041
 303, 0.250000, 0.251111
 304, 0.270833, 0.255536
 305, 0.291667, 0.249405
 306, 0.312500, 0.242875
 307, 0.333333, 0.246111
 308, 0.354167, 0.263222
 309, 0.375000, 0.289751
 310, 0.395833, 0.315191
 311, 0.416667, 0.329053
 312, 0.437500, 0.326938
 313, 0.458333, 0.313044
 314, 0.479167, 0.297663
 315, 0.500000, 0.291111
 316, 0.520833, 0.297663
 317, 0.541667, 0.313044
 318, 0.562500, 0.326938
 319, 0.583333, 0.329053
 320, 0.604167, 0.315191
 321, 0.625000, 0.289751
 322, 0.645833, 0.263222
 323, 0.666667, 0.246111
 324, 0.687500, 0.242875
 325, 0.708333, 0.249405
 326, 0.729167, 0.255536
 327, 0.750000, 0.251111
 328, 0.770833, 0.232041
 329, 0.791667, 0.202817
 330, 0.812500, 0.173992
 331, 0.833333, 0.156111
 332, 0.854167, 0.153645
 333, 0.875000, 0.162472
 334, 0.895833, 0.172387
 335, 0.916667, 0.173169
 336, 0.937500, 0.160640
 337, 0.958333, 0.139178
 338, 0.979167, 0.119203
 339, 1.000000, 0.111111
 340, 1.020833, 0.119203
 341, 1.041667, 0.139178
 342, 1.062500, 0.160640
 343, 1.083333, 0.173169
 344, 1.104167, 0.172387
 345, 1.125000, 0.162472
 346, 1.145833, 0.153645
 347, 1.166667, 0.156111
 348, 1.187500, 0.173992
 349, 1.208333, 0.202817
 350, 1.229167, 0.232041
 351, 1.250000, 0.251111
 352, 1.270833, 0.255536
 353, 1.291667, 0.249405
 354, 1.312500, 0.242875
 355, 1.333333, 0.246111
 356, 1.354167, 0.263222
 357, 1.375000, 0.289751
 358, 1.395833, 0.315191
 359, 1.416667, 0.329053
 360, 1.437500, 0.326938
 361, 1.458333, 0.313044
 362, 1.479167, 0.297663
 363, 1.500000, 0.291111
 364, 1.520833, 0.297663
 365, 1.541667, 0.313044
 366, 1.562500, 0.326938
 367, 1.583333, 0.329053
 368, 1.604167, 0.315191
 369, 1.625000, 0.289751
 370, 1.645833, 0.263222
 371, 1.666667, 0.246111
 372, 1.687500, 0.242875
 373, 1.708333, 0.249405
 374, 1.729167, 0.255536
 375, 1.750000, 0.251111
 376, 1.770833, 0.232041
 377, 1.791667, 0.202817
 378, 1.812500, 0.173992
 379, 1.833333, 0.156111
 380, 1.854167, 0.153645
 381, 1.875000, 0.162472
 382, 1.895833, 0.172387
 383, 1.916667, 0.173169
 384, 1.937500, 0.160640
 385, 1.958333, 0.139178
 386, 1.979167, 0.119203
 387, 2.000000, 0.111111
 388, 2.020833, 0.119203
 389, 2.041667, 0.139178
 390, 2.062500, 0.160640
 391, 2.083333, 0.173169
 392, 2.104167, 0.172387
 393, 2.125000, 0.162472
 394, 2.145833, 0.153645
 395, 2.166667, 0.156111
 396, 2.187500, 0.173992
 397, 2.208333, 0.202817
 398, 2.229167, 0.232041
 399, 2.250000, 0.251111
 400, 2.270833, 0.255536
 401, 2.291667, 0.249405
 402, 2.312500, 0.242875
 403, 2.333333, 0.246111
 404, 2.354167, 0.263222
 405, 2.375000, 0.289751
 406, 2.395833, 0.315191
 407, 2.416667, 0.329053
 408, 2.437500, 0.326938
 409, 2.458333, 0.313044
 410, 2.479167, 0.297663
 411, 2.500000, 0.291111
 412, 2.520833, 0.297663
 413, 2.541667, 0.313044
 414, 2.562500, 0.326938
 415, 2.583333, 0.329053
 416, 2.604167, 0.315191
 417, 2.625000, 0.289751
 418, 2.645833, 0.263222
 419, 2.666667, 0.246111
 420, 2.687500, 0.242875
 421, 2.708333, 0.249405
 422, 2.729167, 0.255536
 423, 2.750000, 0.251111
 424, 2.770833, 0.232041
 425, 2.791667, 0.202817
 426, 2.812500, 0.173992
 427, 2.833333, 0.156111
 428, 2.854167, 0.153645
 429, 2.875000, 0.162472
 430, 2.895833, 0.172387
 431, 2.916667, 0.173169
 432, 2.937500, 0.160640
 433, 2.958333, 0.139178
 434, 2.979167, 0.119203
 435, 3.000000, 0.111111
 436, 0.000000, 0.166667
 437, 0.020833, 0.174759
 438, 0.041667, 0.194733
 439, 0.062500, 0.216195
 440, 0.083333, 0.228724
 441, 0.104167, 0.227943
 442, 0.125000, 0.218027
 443, 0.145833, 0.209200
 444, 0.166667, 0.211667
 445, 0.187500, 0.229547
 446, 0.208333, 0.258373
 447, 0.229167, 0.287597
 448, 0.250000, 0.306667
 449, 0.270833, 0.311092
 450, 0.291667, 0.304960
 451, 0.312500, 0.298431
 452, 0.333333, 0.301667
 453, 0.354167, 0.318778
 454, 0.375000, 0.345306
 455, 0.395833, 0.370746
 456, 0.416667, 0.384609
 457, 0.437500, 0.382493
 458, 0.458333, 0.368600
 459, 0.479167, 0.353219
 460, 0.500000, 0.346667
 461, 0.520833, 0.353219
 462, 0.541667, 0.368600
 463, 0.562500, 0.382493
 464, 0.583333, 0.384609
 465, 0.604167, 0.370746
 466, 0.625000, 0.345306
 467, 0.645833, 0.318778
 468, 0.666667, 0.301667
 469, 0.687500, 0.298431
 470, 0.708333, 0.304960
 471, 0.729167, 0.311092
 472, 0.750000, 0.306667
 473, 0.770833, 0.287597
 474, 0.791667, 0.258373
 475, 0.812500, 0.229547
 476, 0.833333, 0.211667
 477, 0.854167, 0.209200
 478, 0.875000, 0.218027
 479, 0.895833, 0.227943
 480, 0.916667, 0.228724
 481, 0.937500, 0.216195
 482, 0.958333, 0.194733
 483, 0.979167, 0.174759
 484, 1.000000, 0.166667
 485, 1.020833, 0.174759
 486, 1.041667, 0.194733
 487, 1.062500, 0.216195
 488, 1.083333, 0.228724
 489, 1.104167, 0.227943
 490, 1.125000, 0.218027
 491, 1.145833, 0.209200
 492, 1.166667, 0.211667
 493, 1.187500, 0.229547
 494, 1.208333, 0.258373
 495, 1.229167, 0.287597
 496, 1.250000, 0.306667
 497, 1.270833, 0.311092
 498, 1.291667, 0.304960
 499, 1.312500, 0.298431
 500, 1.333333, 0.301667
 501, 1.354167, 0.318778
 502, 1.375000, 0.345306
 503, 1.395833, 0.370746
 504, 1.416667, 0.384609
 505, 1.437500, 0.382493
 506, 1.458333, 0.368600
 507, 1.479167, 0.353219
 508, 1.500000, 0.346667
 509, 1.520833, 0.353219
 510, 1.541667, 0.368600
 511, 1.562500, 0.382493
 512, 1.583333, 0.384609
 513, 1.604167, 0.370746
 514, 1.625000, 0.345306
 515, 1.645833, 0.318778
 516, 1.666667, 0.301667
 517, 1.687500, 0.298431
 518, 1.708333, 0.304960
 519, 1.729167, 0.311092
 520, 1.750000, 0.306667
 521, 1.770833, 0.287597
 522, 1.791667, 0.258373
 523, 1.812500, 0.229547
 524, 1.833333, 0.211667
 525, 1.854167, 0.209200
 526, 1.875000, 0.218027
 527, 1.895833, 0.227943
 528, 1.916667, 0.228724
 529, 1.937500, 0.216195
 530, 1.958333, 0.194733
 531, 1.979167, 0.174759
 532, 2.000000, 0.166667
 533, 2.020833, 0.174759
 534, 2.041667, 0.194733
 535, 2.062500, 0.216195
 536, 2.083333, 0.228724
 537, 2.104167, 0.227943
 538, 2.125000, 0.218027
 539, 2.145833, 0.209200
 540, 2.166667, 0.211667
 541, 2.187500, 0.229547
 542, 2.208333, 0.258373
 543, 2.229167, 0.287597
 544, 2.250000, 0.306667
 545, 2.270833, 0.311092
 546, 2.291667, 0.304960
 547, 2.312500, 0.298431
 548, 2.333333, 0.301667
 549, 2.354167, 0.318778
 550, 2.375000, 0.345306
 551, 2.395833, 0.370746
 552, 2.416667, 0.384609
 553, 2.437500, 0.382493
 554, 2.458333, 0.368600
 555, 2.479167, 0.353219
 556, 2.500000, 0.346667
 557, 2.520833, 0.353219
 558, 2.541667, 0.368600
 559, 2.562500, 0.382493
 560, 2.583333, 0.384609
 561, 2.604167, 0.370746
 562, 2.625000, 0.345306
 563, 2.645833, 0.318778
 564, 2.666667, 0.301667
 565, 2.687500, 0.298431
 566, 2.708333, 0.304960
 567, 2.729167, 0.311092
 568, 2.750000, 0.306667
 569, 2.770833, 0.287597
 570, 2.791667, 0.258373
 571, 2.812500, 0.229547
 572, 2.833333, 0.211667
 573, 2.854167, 0.209200
 574, 2.875000, 0.218027
 575, 2.895833, 0.227943
 576, 2.916667, 0.228724
 577, 2.937500, 0.216195
 578, 2.958333, 0.194733
 579, 2.979167, 0.174759
 580, 3.000000, 0.166667
 581, 0.000000, 0.222222
 582, 0.020833, 0.230315
 583, 0.041667, 0.250289
 584, 0.062500, 0.271751
 585, 0.083333, 0.284280
 586, 0.104167, 0.283498
 587, 0.125000, 0.273583
 588, 0.145833, 0.264756
 589, 0.166667, 0.267222
 590, 0.187500, 0.285103
 591, 0.208333, 0.313929
 592, 0.229167, 0.343153
 593, 0.250000, 0.362222
 594, 0.270833, 0.366647
 595, 0.291667, 0.360516
 596, 0.312500, 0.353986
 597, 0.333333, 0.357222
 598, 0.354167, 0.374333
 599, 0.375000, 0.400862
 600, 0.395833, 0.426302
 601, 0.416667, 0.440165
 602, 0.437500, 0.438049
 603, 0.458333, 0.424156
 604, 0.479167, 0.408775
 605, 0.500000, 0.402222
 606, 0.520833, 0.408775
 607, 0.541667, 0.424156
 608, 0.562500, 0.438049
 609, 0.583333, 0.440165
 610, 0.604167, 0.426302
 611, 0.625000, 0.400862
 612, 0.645833, 0.374333
 613, 0.666667, 0.357222
 614, 0.687500, 0.353986
 615, 0.708333, 0.360516
 616, 0.729167, 0.366647
 617, 0.750000, 0.362222
 618, 0.770833, 0.343153
 619, 0.791667, 0.313929
 620, 0.812500, 0.285103
 621, 0.833333, 0.267222
 622, 0.854167, 0.264756
 623, 0.875000, 0.273583
 624, 0.895833, 0.283498
 625, 0.916667, 0.284280
 626, 0.937500, 0.271751
 627, 0.958333, 0.250289
 628, 0.979167, 0.230315
 629, 1.000000, 0.222222
 630, 1.020833, 0.230315
 631, 1.041667, 0.250289
 632, 1.062500, 0.271751
 633, 1.083333, 0.284280
 634, 1.104167, 0.283498
 635, 1.125000, 0.273583
 636, 1.145833, 0.264756
 637, 1.166667, 0.267222
 638, 1.187500, 0.285103
 639, 1.208333, 0.313929
 640, 1.229167, 0.343153
 641, 1.250000, 0.362222
 642, 1.270833, 0.366647
 643, 1.291667, 0.360516
 644, 1.312500, 0.353986
 645, 1.333333, 0.357222
 646, 1.354167, 0.374333
 647, 1.375000, 0.400862
 648, 1.395833, 0.426302
 649, 1.416667, 0.440165
 650, 1.437500, 0.438049
 651, 1.458333, 0.424156
 652, 1.479167, 0.408775
 653, 1.500000, 0.402222
 654, 1.520833, 0.408775
 655, 1.541667, 0.424156
 656, 1.562500, 0.438049
 657, 1.583333, 0.440165
 658, 1.604167, 0.426302
 659, 1.625000, 0.400862
 660, 1.645833, 0.374333
 661, 1.666667, 0.357222
 662, 1.687500, 0.353986
 663, 1.708333, 0.360516
 664, 1.729167, 0.366647
 665, 1.750000, 0.362222
 666, 1.770833, 0.343153
 667, 1.791667, 0.313929
 668, 1.812500, 0.285103
 669, 1.833333, 0.267222
 670, 1.854167, 0.264756
 671, 1.875000, 0.273583
 672, 1.895833, 0.283498
 673, 1.916667, 0.284280
 674, 1.937500, 0.271751
 675, 1.958333, 0.250289
 676, 1.979167, 0.230315
 677, 2.000000, 0.222222
 678, 2.020833, 0.230315
 679, 2.041667, 0.250289
 680, 2.062500, 0.271751
 681, 2.083333, 0.284280
 682, 2.104167, 0.283498
 683, 2.125000, 0.273583
 684, 2.145833, 0.264756
 685, 2.166667, 0.267222
 686, 2.187500, 0.285103
 687, 2.208333, 0.313929
 688, 2.229167, 0.343153
 689, 2.250000, 0.362222
 690, 2.270833, 0.366647
 691, 2.291667, 0.360516
 692, 2.312500, 0.353986
 693, 2.333333, 0.357222
 694, 2.354167, 0.374333
 695, 2.375000, 0.400862
 696, 2.395833, 0.426302
 697, 2.416667, 0.440165
 698, 2.437500, 0.438049
 699, 2.458333, 0.424156
 700, 2.479167, 0.408775
 701, 2.500000, 0.402222
 702, 2.520833, 0.408775
 703, 2.541667, 0.424156
 704, 2.562500, 0.438049
 705, 2.583333, 0.440165
 706, 2.604167, 0.426302
 707, 2.625000, 0.400862
 708, 2.645833, 0.374333
 709, 2.666667, 0.357222
 710, 2.687500, 0.353986
 711, 2.708333, 0.360516
 712, 2.729167, 0.366647
 713, 2.750000, 0.362222
 714, 2.770833, 0.343153
 715, 2.791667, 0.313929
 716, 2.812500, 0.285103
 717, 2.833333, 0.267222
 718, 2.854167, 0.264756
 719, 2.875000, 0.273583
 720, 2.895833, 0.283498
 721, 2.916667, 0.284280
 722, 2.937500, 0.271751
 723, 2.958333, 0.250289
 724, 2.979167, 0.230315
 725, 3.000000, 0.222222
 726, 0.000000, 0.277778
 727, 0.020833, 0.285870
 728, 0.041667, 0.305844
 729, 0.062500, 0.327306
 730, 0.083333, 0.339835
 731, 0.104167, 0.339054
 732, 0.125000, 0.329138
 733, 0.145833, 0.320312
 734, 0.166667, 0.322778
 735, 0.187500, 0.340659
 736, 0.208333, 0.369484
 737, 0.229167, 0.398708
 738, 0.250000, 0.417778
 739, 0.270833, 0.422203
 740, 0.291667, 0.416071
 741, 0.312500, 0.409542
 742, 0.333333, 0.412778
 743, 0.354167, 0.429889
 744, 0.375000, 0.456417
 745, 0.395833, 0.481857
 746, 0.416667, 0.495720
 747, 0.437500, 0.493605
 748, 0.458333, 0.479711
 749, 0.479167, 0.464330
 750, 0.500000, 0.457778
 751, 0.520833, 0.464330
 752, 0.541667, 0.479711
 753, 0.562500, 0.493605
 754, 0.583333, 0.495720
 755, 0.604167, 0.481857
 756, 0.625000, 0.456417
 757, 0.645833, 0.429889
 758, 0.666667, 0.412778
 759, 0.687500, 0.409542
 760, 0.708333, 0.416071
 761, 0.729167, 0.422203
 762, 0.750000, 0.417778
 763, 0.770833, 0.398708
 764, 0.791667, 0.369484
 765, 0.812500, 0.340659
 766, 0.833333, 0.322778
 767, 0.854167, 0.320312
 768, 0.875000, 0.329138
 769, 0.895833, 0.339054
 770, 0.916667, 0.339835
 771, 0.937500, 0.327306
 772, 0.958333, 0.305844
 773, 0.979167, 0.285870
 774, 1.000000, 0.277778
 775, 1.020833, 0.285870
 776, 1.041667, 0.305844
 777, 1.062500, 0.327306
 778, 1.083333, 0.339835
 779, 1.104167, 0.339054
 780, 1.125000, 0.329138
 781, 1.145833, 0.320312
 782, 1.166667, 0.322778
 783, 1.187500, 0.340659
 784, 1.208333, 0.369484
 785, 1.229167, 0.398708
 786, 1.250000, 0.417778
 787, 1.270833, 0.422203
 788, 1.291667, 0.416071
 789, 1.312500, 0.409542
 790, 1.333333, 0.412778
 791, 1.354167, 0.429889
 792, 1.375000, 0.456417
 793, 1.395833, 0.481857
 794, 1.416667, 0.495720
 795, 1.437500, 0.493605
 796, 1.458333, 0.479711
 797, 1.479167, 0.464330
 798, 1.500000, 0.457778
 799, 1.520833, 0.464330
 800, 1.541667, 0.479711
 801, 1.562500, 0.493605
 802, 1.583333, 0.495720
 803, 1.604167, 0.481857
 804, 1.625000, 0.456417
 805, 1.645833, 0.429889
 806, 1.666667, 0.412778
 807, 1.687500, 0.409542
 808, 1.708333, 0.416071
 809, 1.729167, 0.422203
 810, 1.750000, 0.417778
 811, 1.770833, 0.398708
 812, 1.791667, 0.369484
 813, 1.812500, 0.340659
 814, 1.833333, 0.322778
 815, 1.854167, 0.320312
 816, 1.875000, 0.329138
 817, 1.895833, 0.339054
 818, 1.916667, 0.339835
 819, 1.937500, 0.327306
 820, 1.958333, 0.305844
 821, 1.979167, 0.285870
 822, 2.000000, 0.277778
 823, 2.020833, 0.285870
 824, 2.041667, 0.305844
 825, 2.062500, 0.327306
 826, 2.083333, 0.339835
 827, 2.104167, 0.339054
 828, 2.125000, 0.329138
 829, 2.145833, 0.320312
 830, 2.166667, 0.322778
 831, 2.187500, 0.340659
 832, 2.208333, 0.369484
 833, 2.229167, 0.398708
 834, 2.250000, 0.417778
 835, 2.270833, 0.422203
 836, 2.291667, 0.416071
 837, 2.312500, 0.409542
 838, 2.333333, 0.412778
 839, 2.354167, 0.429889
 840, 2.375000, 0.456417
 841, 2.395833, 0.481857
 842, 2.416667, 0.495720
 843, 2.437500, 0.493605
 844, 2.458333, 0.479711
 845, 2.479167, 0.464330
 846, 2.500000, 0.457778
 847, 2.520833, 0.464330
 848, 2.541667, 0.479711
 849, 2.562500, 0.493605
 850, 2.583333, 0.495720
 851, 2.604167, 0.481857
 852, 2.625000, 0.456417
 853, 2.645833, 0.429889
 854, 2.666667, 0.412778
 855, 2.687500, 0.409542
 856, 2.708333, 0.416071
 857, 2.729167, 0.422203
 858, 2.750000, 0.417778
 859, 2.770833, 0.398708
 860, 2.791667, 0.369484
 861, 2.812500, 0.340659
 862, 2.833333, 0.322778
 863, 2.854167, 0.320312
 864, 2.875000, 0.329138
 865, 2.895833, 0.339054
 866, 2.916667, 0.339835
 867, 2.937500, 0.327306
 868, 2.958333, 0.305844
 869, 2.979167, 0.285870
 870, 3.000000, 0.277778
 871, 0.000000, 0.333333
 872, 0.020833, 0.341426
 873, 0.041667, 0.361400
 874, 0.062500, 0.382862
 875, 0.083333, 0.395391
 876, 0.104167, 0.394609
 877, 0.125000, 0.384694
 878, 0.145833, 0.375867
 879, 0.166667, 0.378333
 880, 0.187500, 0.396214
 881, 0.208333, 0.425040
 882, 0.229167, 0.454264
 883, 0.250000, 0.473333
 884, 0.270833, 0.477758
 885, 0.291667, 0.471627
 886, 0.312500, 0.465097
 887, 0.333333, 0.468333
 888, 0.354167, 0.485444
 889, 0.375000, 0.511973
 890, 0.395833, 0.537413
 891, 0.416667, 0.551276
 892, 0.437500, 0.549160
 893, 0.458333, 0.535267
 894, 0.479167, 0.519886
 895, 0.500000, 0.513333
 896, 0.520833, 0.519886
 897, 0.541667, 0.535267
 898, 0.562500, 0.549160
 899, 0.583333, 0.551276
 900, 0.604167, 0.537413
 901, 0.625000, 0.511973
 902, 0.645833, 0.485444
 903, 0.666667, 0.468333
 904, 0.687500, 0.465097
 905, 0.708333, 0.471627
 906, 0.729167, 0.477758
 907, 0.750000, 0.473333
 908, 0.770833, 0.454264
 909, 0.791667, 0.425040
 910, 0.812500, 0.396214
 911, 0.833333, 0.378333
 912, 0.854167, 0.375867
 913, 0.875000, 0.384694
 914, 0.895833, 0.394609
 915, 0.916667, 0.395391
 916, 0.937500, 0.382862
 917, 0.958333, 0.361400
 918, 0.979167, 0.341426
 919, 1.000000, 0.333333
 920, 1.020833, 0.341426
 921, 1.041667, 0.361400
 922, 1.062500, 0.382862
 923, 1.083333, 0.395391
 924, 1.104167, 0.394609
 925, 1.125000, 0.384694
 926, 1.145833, 0.375867
 927, 1.166667, 0.378333
 928, 1.187500, 0.396214
 929, 1.208333, 0.425040
 930, 1.229167, 0.454264
 931, 1.250000, 0.473333
 932, 1.270833, 0.477758
 933, 1.291667, 0.471627
 934, 1.312500, 0.465097
 935, 1.333333, 0.468333
 936, 1.354167, 0.485444
 937, 1.375000, 0.511973
 938, 1.395833, 0.537413
 939, 1.416667, 0.551276
 940, 1.437500, 0.549160
 941, 1.458333, 0.535267
 942, 1.479167, 0.519886
 943, 1.500000, 0.513333
 944, 1.520833, 0.519886
 945, 1.541667, 0.535267
 946, 1.562500, 0.549160
 947, 1.583333, 0.551276
 948, 1.604167, 0.537413
 949, 1.625000, 0.511973
 950, 1.645833, 0.485444
 951, 1.666667, 0.468333
 952, 1.687500, 0.465097
 953, 1.708333, 0.471627
 954, 1.729167, 0.477758
 955, 1.750000, 0.473333
 956, 1.770833, 0.454264
 957, 1.791667, 0.425040
 958, 1.812500, 0.396214
 959, 1.833333, 0.378333
 960, 1.854167, 0.375867
 961, 1.875000, 0.384694
 962, 1.895833, 0.394609
 963, 1.916667, 0.395391
 964, 1.937500, 0.382862
 965, 1.958333, 0.361400
 966, 1.979167, 0.341426
 967, 2.000000, 0.333333
 968, 2.020833, 0.341426
 969, 2.041667, 0.361400
 970, 2.062500, 0.382862
 971, 2.083333, 0.395391
 972, 2.104167, 0.394609
 973, 2.125000, 0.384694
 974, 2.145833, 0.375867
 975, 2.166667, 0.378333
 976, 2.187500, 0.396214
 977, 2.208333, 0.425040
 978, 2.229167, 0.454264
 979, 2.250000, 0.473333
 980, 2.270833, 0.477758
 981, 2.291667, 0.471627
 982, 2.312500, 0.465097
 983, 2.333333, 0.468333
 984, 2.354167, 0.485444
 985, 2.375000, 0.511973
 986, 2.395833, 0.537413
 987, 2.416667, 0.551276
 988, 2.437500, 0.549160
 989, 2.458333, 0.535267
 990, 2.479167, 0.519886
 991, 2.500000, 0.513333
 992, 2.520833, 0.519886
 993, 2.541667, 0.535267
 994, 2.562500, 0.549160
 995, 2.583333, 0.551276
 996, 2.604167, 0.537413
 997, 2.625000, 0.511973
 998, 2.645833, 0.485444
 999, 2.666667, 0.468333
 1000, 2.687500, 0.465097
 1001, 2.708333, 0.471627
 1002, 2.729167, 0.477758
 1003, 2.750000, 0.473333
 1004, 2.770833, 0.454264
 1005, 2.791667, 0.425040
 1006, 2.812500, 0.396214
 1007, 2.833333, 0.378333
 1008, 2.854167, 0.375867
 1009, 2.875000, 0.384694
 1010, 2.895833, 0.394609
 1011, 2.916667, 0.395391
 1012, 2.937500, 0.382862
 1013, 2.958333, 0.361400
 1014, 2.979167, 0.341426
 1015, 3.000000, 0.333333
 1016, 0.000000, 0.388889
 1017, 0.020833, 0.396981
 1018, 0.041667, 0.416956
 1019, 0.062500, 0.438417
 1020, 0.083333, 0.450947
 1021, 0.104167, 0.450165
 1022, 0.125000, 0.440249
 1023, 0.145833, 0.431423
 1024, 0.166667, 0.433889
 1025, 0.187500, 0.451770
 1026, 0.208333, 0.480595
 1027, 0.229167, 0.509819
 1028, 0.250000, 0.528889
 1029, 0.270833, 0.533314
 1030, 0.291667, 0.527183
 1031, 0.312500, 0.520653
 1032, 0.333333, 0.523889
 1033, 0.354167, 0.541000
 1034, 0.375000, 0.567528
 1035, 0.395833, 0.592968
 1036, 0.416667, 0.606831
 1037, 0.437500, 0.604716
 1038, 0.458333, 0.590822
 1039, 0.479167, 0.575441
 1040, 0.500000, 0.568889
 1041, 0.520833, 0.575441
 1042, 0.541667, 0.590822
 1043, 0.562500, 0.604716
 1044, 0.583333, 0.606831
 1045, 0.604167, 0.592968
 1046, 0.625000, 0.567528
 1047, 0.645833, 0.541000
 1048, 0.666667, 0.523889
 1049, 0.687500, 0.520653
 1050, 0.708333, 0.527183
 1051, 0.729167, 0.533314
 1052, 0.750000, 0.528889
 1053, 0.770833, 0.509819
 1054, 0.791667, 0.480595
 1055, 0.812500, 0.451770
 1056, 0.833333, 0.433889
 1057, 0.854167, 0.431423
 1058, 0.875000, 0.440249
 1059, 0.895833, 0.450165
 1060, 0.916667, 0.450947
 1061, 0.937500, 0.438417
 1062, 0.958333, 0.416956
 1063, 0.979167, 0.396981
 1064, 1.000000, 0.388889
 1065, 1.020833, 0.396981
 1066, 1.041667, 0.416956
 1067, 1.062500, 0.438417
 1068, 1.083333, 0.450947
 1069, 1.104167, 0.450165
 1070, 1.125000, 0.440249
 1071, 1.145833, 0.431423
 1072, 1.166667, 0.433889
 1073, 1.187500, 0.451770
 1074, 1.208333, 0.480595
 1075, 1.229167, 0.509819
 1076, 1.250000, 0.528889
 1077, 1.270833, 0.533314
 1078, 1.291667, 0.527183
 1079, 1.312500, 0.520653
 1080, 1.333333, 0.523889
 1081, 1.354167, 0.541000
 1082, 1.375000, 0.567528
 1083, 1.395833, 0.592968
 1084, 1.416667, 0.606831
 1085, 1.437500, 0.604716
 1086, 1.458333, 0.590822
 1087, 1.479167, 0.575441
 1088, 1.500000, 0.568889
 1089, 1.520833, 0.575441
 1090, 1.541667, 0.590822
 1091, 1.562500, 0.604716
 1092, 1.583333, 0.606831
 1093, 1.604167, 0.592968
 1094, 1.625000, 0.567528
 1095, 1.645833, 0.541000
 1096, 1.666667, 0.523889
 1097, 1.687500, 0.520653
 1098, 1.708333, 0.527183
 1099, 1.729167, 0.533314
 1100, 1.750000, 0.528889
 1101, 1.770833, 0.509819
 1102, 1.791667, 0.480595
 1103, 1.812500, 0.451770
 1104, 1.833333, 0.433889
 1105, 1.854167, 0.431423
 1106, 1.875000, 0.440249
 1107, 1.895833, 0.450165
 1108, 1.916667, 0.450947
 1109, 1.937500, 0.438417
 1110, 1.958333, 0.416956
 1111, 1.979167, 0.396981
 1112, 2.000000, 0.388889
 1113, 2.020833, 0.396981
 1114, 2.041667, 0.416956
 1115, 2.062500, 0.438417
 1116, 2.083333, 0.450947
 1117, 2.104167, 0.450165
 1118, 2.125000, 0.440249
 1119, 2.145833, 0.431423
 1120, 2.166667, 0.433889
 1121, 2.187500, 0.451770
 1122, 2.208333, 0.480595
 1123, 2.229167, 0.509819
 1124, 2.250000, 0.528889
 1125, 2.270833, 0.533314
 1126, 2.291667, 0.527183
 1127, 2.312500, 0.520653
 1128, 2.333333, 0.523889
 1129, 2.354167, 0.541000
 1130, 2.375000, 0.567528
 1131, 2.395833, 0.592968
 1132, 2.416667, 0.606831
 1133, 2.437500, 0.604716
 1134, 2.458333, 0.590822
 1135, 2.479167, 0.575441
 1136, 2.500000, 0.568889
 1137, 2.520833, 0.575441
 1138, 2.541667, 0.590822
 1139, 2.562500, 0.604716
 1140, 2.583333, 0.606831
 1141, 2.604167, 0.592968
 1142, 2.625000, 0.567528
 1143, 2.645833, 0.541000
 1144, 2.666667, 0.523889
 1145, 2.687500, 0.520653
 1146, 2.708333, 0.527183
 1147, 2.729167, 0.533314
 1148, 2.750000, 0.528889
 1149, 2.770833, 0.509819
 1150, 2.791667, 0.480595
 1151, 2.812500, 0.451770
 1152, 2.833333, 0.433889
 1153, 2.854167, 0.431423
 1154, 2.875000, 0.440249
 1155, 2.895833, 0.450165
 1156, 2.916667, 0.450947
 1157, 2.937500, 0.438417
 1158, 2.958333, 0.416956
 1159, 2.979167, 0.396981
 1160, 3.000000, 0.388889
 1161, 0.000000, 0.444444
 1162, 0.020833, 0.452537
 1163, 0.041667, 0.472511
 1164, 0.062500, 0.493973
 1165, 0.083333, 0.506502
 1166, 0.104167, 0.505720
 1167, 0.125000, 0.495805
 1168, 0.145833, 0.486978
 1169, 0.166667, 0.489444
 1170, 0.187500, 0.507325
 1171, 0.208333, 0.536151
 1172, 0.229167, 0.565375
 1173, 0.250000, 0.584444
 1174, 0.270833, 0.588869
 1175, 0.291667, 0.582738
 1176, 0.312500, 0.576208
 1177, 0.333333, 0.579444
 1178, 0.354167, 0.596555
 1179, 0.375000, 0.623084
 1180, 0.395833, 0.648524
 1181, 0.416667, 0.662387
 1182, 0.437500, 0.660271
 1183, 0.458333, 0.646378
 1184, 0.479167, 0.630997
 1185, 0.500000, 0.624444
 1186, 0.520833, 0.630997
 1187, 0.541667, 0.646378
 1188, 0.562500, 0.660271
 1189, 0.583333, 0.662387
 1190, 0.604167, 0.648524
 1191, 0.625000, 0.623084
 1192, 0.645833, 0.596555
 1193, 0.666667, 0.579444
 1194, 0.687500, 0.576208
 1195, 0.708333, 0.582738
 1196, 0.729167, 0.588869
 1197, 0.750000, 0.584444
 1198, 0.770833, 0.565375
 1199, 0.791667, 0.536151
 1200, 0.812500, 0.507325
 1201, 0.833333, 0.489444
 1202, 0.854167, 0.486978
 1203, 0.875000, 0.495805
 1204, 0.895833, 0.505720
 1205, 0.916667, 0.506502
 1206, 0.937500, 0.493973
 1207, 0.958333, 0.472511
 1208, 0.979167, 0.452537
 1209, 1.000000, 0.444444
 1210, 1.020833, 0.452537
 1211, 1.041667, 0.472511
 1212, 1.062500, 0.493973
 1213, 1.083333, 0.506502
 1214, 1.104167, 0.505720
 1215, 1.125000, 0.495805
 1216, 1.145833, 0.486978
 1217, 1.166667, 0.489444
 1218, 1.187500, 0.507325
 1219, 1.208333, 0.536151
 1220, 1.229167, 0.565375
 1221, 1.250000, 0.584444
 1222, 1.270833, 0.588869
 1223, 1.291667, 0.582738
 1224, 1.312500, 0.576208
 1225, 1.333333, 0.579444
 1226, 1.354167, 0.596555
 1227, 1.375000, 0.623084
 1228, 1.395833, 0.648524
 1229, 1.416667, 0.662387
 1230, 1.437500, 0.660271
 1231, 1.458333, 0.646378
 1232, 1.479167, 0.630997
 1233, 1.500000, 0.624444
 1234, 1.520833, 0.630997
 1235, 1.541667, 0.646378
 1236, 1.562500, 0.660271
 1237, 1.583333, 0.662387
 1238, 1.604167, 0.648524
 1239, 1.625000, 0.623084
 1240, 1.645833, 0.596555
 1241, 1.666667, 0.579444
 1242, 1.687500, 0.576208
 1243, 1.708333, 0.582738
 1244, 1.729167, 0.588869
 1245, 1.750000, 0.584444
 1246, 1.770833, 0.565375
 1247, 1.791667, 0.536151
 1248, 1.812500, 0.507325
 1249, 1.833333, 0.489444
 1250, 1.854167, 0.486978
 1251, 1.875000, 0.495805
 1252, 1.895833, 0.505720
 1253, 1.916667, 0.506502
 1254, 1.937500, 0.493973
 1255, 1.958333, 0.472511
 1256, 1.979167, 0.452537
 1257, 2.000000, 0.444444
 1258, 2.020833, 0.452537
 1259, 2.041667, 0.472511
 1260, 2.062500, 0.493973
 1261, 2.083333, 0.506502
 1262, 2.104167, 0.505720
 1263, 2.125000, 0.495805
 1264, 2.145833, 0.486978
 1265, 2.166667, 0.489444
 1266, 2.187500, 0.507325
 1267, 2.208333, 0.536151
 1268, 2.229167, 0.565375
 1269, 2.250000, 0.584444
 1270, 2.270833, 0.588869
 1271, 2.291667, 0.582738
 1272, 2.312500, 0.576208
 1273, 2.333333, 0.579444
 1274, 2.354167, 0.596555
 1275, 2.375000, 0.623084
 1276, 2.395833, 0.648524
 1277, 2.416667, 0.662387
 1278, 2.437500, 0.660271
 1279, 2.458333, 0.646378
 1280, 2.479167, 0.630997
 1281, 2.500000, 0.624444
 1282, 2.520833, 0.630997
 1283, 2.541667, 0.646378
 1284, 2.562500, 0.660271
 1285, 2.583333, 0.662387
 1286, 2.604167, 0.648524
 1287, 2.625000, 0.623084
 1288, 2.645833, 0.596555
 1289, 2.666667, 0.579444
 1290, 2.687500, 0.576208
 1291, 2.708333, 0.582738
 1292, 2.729167, 0.588869
 1293, 2.750000, 0.584444
 1294, 2.770833, 0.565375
 1295, 2.791667, 0.536151
 1296, 2.812500, 0.507325
 1297, 2.833333, 0.489444
 1298, 2.854167, 0.486978
 1299, 2.875000, 0.495805
 1300, 2.895833, 0.505720
 1301, 2.916667, 0.506502
 1302, 2.937500, 0.493973
 1303, 2.958333, 0.472511
 1304, 2.979167, 0.452537
 1305, 3.000000, 0.444444
 1306, 0.000000, 0.500000
 1307, 0.020833, 0.508092
 1308, 0.041667, 0.528067
 1309, 0.062500, 0.549529
 1310, 0.083333, 0.562058
 1311, 0.104167, 0.561276
 1312, 0.125000, 0.551360
 1313, 0.145833, 0.542534
 1314, 0.166667, 0.545000
 1315, 0.187500, 0.562881
 1316, 0.208333, 0.591706
 1317, 0.229167, 0.620930
 1318, 0.250000, 0.640000
 1319, 0.270833, 0.644425
 1320, 0.291667, 0.638294
 1321, 0.312500, 0.631764
 1322, 0.333333, 0.635000
 1323, 0.354167, 0.652111
 1324, 0.375000, 0.678640
 1325, 0.395833, 0.704079
 1326, 0.416667, 0.717942
 1327, 0.437500, 0.715827
 1328, 0.458333, 0.701933
 1329, 0.479167, 0.686552
 1330, 0.500000, 0.680000
 1331, 0.520833, 0.686552
 1332, 0.541667, 0.701933
 1333, 0.562500, 0.715827
 1334, 0.583333, 0.717942
 1335, 0.604167, 0.704079
 1336, 0.625000, 0.678640
 1337, 0.645833, 0.652111
 1338, 0.666667, 0.635000
 1339, 0.687500, 0.631764
 1340, 0.708333, 0.638294
 1341, 0.729167, 0.644425
 1342, 0.750000, 0.640000
 1343, 0.770833, 0.620930
 1344, 0.791667, 0.591706
 1345, 0.812500, 0.562881
 1346, 0.833333, 0.545000
 1347, 0.854167, 0.542534
 1348, 0.875000, 0.551360
 1349, 0.895833, 0.561276
 1350, 0.916667, 0.562058
 1351, 0.937500, 0.549529
 1352, 0.958333, 0.528067
 1353, 0.979167, 0.508092
 1354, 1.000000, 0.500000
 1355, 1.020833, 0.508092
 1356, 1.041667, 0.528067
 1357, 1.062500, 0.549529
 1358, 1.083333, 0.562058
 1359, 1.104167, 0.561276
 1360, 1.125000, 0.551360
 1361, 1.145833, 0.542534
 1362, 1.166667, 0.545000
 1363, 1.187500, 0.562881
 1364, 1.208333, 0.591706
 1365, 1.229167, 0.620930
 1366, 1.250000, 0.640000
 1367, 1.270833, 0.644425
 1368, 1.291667, 0.638294
 1369, 1.312500, 0.631764
 1370, 1.333333, 0.635000
 1371, 1.354167, 0.652111
 1372, 1.375000, 0.678640
 1373, 1.395833, 0.704079
 1374, 1.416667, 0.717942
 1375, 1.437500, 0.715827
 1376, 1.458333, 0.701933
 1377, 1.479167, 0.686552
 1378, 1.500000, 0.680000
 1379, 1.520833, 0.686552
 1380, 1.541667, 0.701933
 1381, 1.562500, 0.715827
 1382, 1.583333, 0.717942
 1383, 1.604167, 0.704079
 1384, 1.625000, 0.678640
 1385, 1.645833, 0.652111
 1386, 1.666667, 0.635000
 1387, 1.687500, 0.631764
 1388, 1.708333, 0.638294
 1389, 1.729167, 0.644425
 1390, 1.750000, 0.640000
 1391, 1.770833, 0.620930
 1392, 1.791667, 0.591706
 1393, 1.812500, 0.562881
 1394, 1.833333, 0.545000
 1395, 1.854167, 0.542534
 1396, 1.875000, 0.551360
 1397, 1.895833, 0.561276
 1398, 1.916667, 0.562058
 1399, 1.937500, 0.549529
 1400, 1.958333, 0.528067
 1401, 1.979167, 0.508092
 1402, 2.000000, 0.500000
 1403, 2.020833, 0.508092
 1404, 2.041667, 0.528067
 1405, 2.062500, 0.549529
 1406, 2.083333, 0.562058
 1407, 2.104167, 0.561276
 1408, 2.125000, 0.551360
 1409, 2.145833, 0.542534
 1410, 2.166667, 0.545000
 1411, 2.187500, 0.562881
 1412, 2.208333, 0.591706
 1413, 2.229167, 0.620930
 1414, 2.250000, 0.640000
 1415, 2.270833, 0.644425
 1416, 2.291667, 0.638294
 1417, 2.312500, 0.631764
 1418, 2.333333, 0.635000
 1419, 2.354167, 0.652111
 1420, 2.375000, 0.678640
 1421, 2.395833, 0.704079
 1422, 2.416667, 0.717942
 1423, 2.437500, 0.715827
 1424, 2.458333, 0.701933
 1425, 2.479167, 0.686552
 1426, 2.500000, 0.680000
 1427, 2.520833, 0.686552
 1428, 2.541667, 0.701933
 1429, 2.562500, 0.715827
 1430, 2.583333, 0.717942
 1431, 2.604167, 0.704079
 1432, 2.625000, 0.678640
 1433, 2.645833, 0.652111
 1434, 2.666667, 0.635000
 1435, 2.687500, 0.631764
 1436, 2.708333, 0.638294
 1437, 2.729167, 0.644425
 1438, 2.750000, 0.640000
 1439, 2.770833, 0.620930
 1440, 2.791667, 0.591706
 1441, 2.812500, 0.562881
 1442, 2.833333, 0.545000
 1443, 2.854167, 0.542534
 1444, 2.875000, 0.551360
 1445, 2.895833, 0.561276
 1446, 2.916667, 0.562058
 1447, 2.937500, 0.549529
 1448, 2.958333, 0.528067
 1449, 2.979167, 0.508092
 1450, 3.000000, 0.500000
 1451, 0.000000, 0.555556
 1452, 0.020833, 0.563648
 1453, 0.041667, 0.583622
 1454, 0.062500, 0.605084
 1455, 0.083333, 0.617613
 1456, 0.104167, 0.616831
 1457, 0.125000, 0.606916
 1458, 0.145833, 0.598089
 1459, 0.166667, 0.600556
 1460, 0.187500, 0.618436
 1461, 0.208333, 0.647262
 1462, 0.229167, 0.676486
 1463, 0.250000, 0.695556
 1464, 0.270833, 0.699981
 1465, 0.291667, 0.693849
 1466, 0.312500, 0.687319
 1467, 0.333333, 0.690556
 1468, 0.354167, 0.707666
 1469, 0.375000, 0.734195
 1470, 0.395833, 0.759635
 1471, 0.416667, 0.773498
 1472, 0.437500, 0.771382
 1473, 0.458333, 0.757489
 1474, 0.479167, 0.742108
 1475, 0.500000, 0.735556
 1476, 0.520833, 0.742108
 1477, 0.541667, 0.757489
 1478, 0.562500, 0.771382
 1479, 0.583333, 0.773498
 1480, 0.604167, 0.759635
 1481, 0.625000, 0.734195
 1482, 0.645833, 0.707666
 1483, 0.666667, 0.690556
 1484, 0.687500, 0.687319
 1485, 0.708333, 0.693849
 1486, 0.729167, 0.699981
 1487, 0.750000, 0.695556
 1488, 0.770833, 0.676486
 1489, 0.791667, 0.647262
 1490, 0.812500, 0.618436
 1491, 0.833333, 0.600556
 1492, 0.854167, 0.598089
 1493, 0.875000, 0.606916
 1494, 0.895833, 0.616831
 1495, 0.916667, 0.617613
 1496, 0.937500, 0.605084
 1497, 0.958333, 0.583622
 1498, 0.979167, 0.563648
 1499, 1.000000, 0.555556
 1500, 1.020833, 0.563648
 1501, 1.041667, 0.583622
 1502, 1.062500, 0.605084
 1503, 1.083333, 0.617613
 1504, 1.104167, 0.616831
 1505, 1.125000, 0.606916
 1506, 1.145833, 0.598089
 1507, 1.166667, 0.600556
 1508, 1.187500, 0.618436
 1509, 1.208333, 0.647262
 1510, 1.229167, 0.676486
 1511, 1.250000, 0.695556
 1512, 1.270833, 0.699981
 1513, 1.291667, 0.693849
 1514, 1.312500, 0.687319
 1515, 1.333333, 0.690556
 1516, 1.354167, 0.707666
 1517, 1.375000, 0.734195
 1518, 1.395833, 0.759635
 1519, 1.416667, 0.773498
 1520, 1.437500, 0.771382
 1521, 1.458333, 0.757489
 1522, 1.479167, 0.742108
 1523, 1.500000, 0.735556
 1524, 1.520833, 0.742108
 1525, 1.541667, 0.757489
 1526, 1.562500, 0.771382
 1527, 1.583333, 0.773498
 1528, 1.604167, 0.759635
 1529, 1.625000, 0.734195
 1530, 1.645833, 0.707666
 1531, 1.666667, 0.690556
 1532, 1.687500, 0.687319
 1533, 1.708333, 0.693849
 1534, 1.729167, 0.699981
 1535, 1.750000, 0.695556
 1536, 1.770833, 0.676486
 1537, 1.791667, 0.647262
 1538, 1.812500, 0.618436
 1539, 1.833333, 0.600556
 1540, 1.854167, 0.598089
 1541, 1.875000, 0.606916
 1542, 1.895833, 0.616831
 1543, 1.916667, 0.617613
 1544, 1.937500, 0.605084
 1545, 1.958333, 0.583622
 1546, 1.979167, 0.563648
 1547, 2.000000, 0.555556
 1548, 2.020833, 0.563648
 1549, 2.041667, 0.583622
 1550, 2.062500, 0.605084
 1551, 2.083333, 0.617613
 1552, 2.104167, 0.616831
 1553, 2.125000, 0.606916
 1554, 2.145833, 0.598089
 1555, 2.166667, 0.600556
 1556, 2.187500, 0.618436
 1557, 2.208333, 0.647262
 1558, 2.229167, 0.676486
 1559, 2.250000, 0.695556
 1560, 2.270833, 0.699981
 1561, 2.291667, 0.693849
 1562, 2.312500, 0.687319
 1563, 2.333333, 0.690556
 1564, 2.354167, 0.707666
 1565, 2.375000, 0.734195
 1566, 2.395833, 0.759635
 1567, 2.416667, 0.773498
 1568, 2.437500, 0.771382
 1569, 2.458333, 0.757489
 1570, 2.479167, 0.742108
 1571, 2.500000, 0.735556
 1572, 2.520833, 0.742108
 1573, 2.541667, 0.757489
 1574, 2.562500, 0.771382
 1575, 2.583333, 0.773498
 1576, 2.604167, 0.759635
 1577, 2.625000, 0.734195
 1578, 2.645833, 0.707666
 1579, 2.666667, 0.690556
 1580, 2.687500, 0.687319
 1581, 2.708333, 0.693849
 1582, 2.729167, 0.699981
 1583, 2.750000, 0.695556
 1584, 2.770833, 0.676486
 1585, 2.791667, 0.647262
 1586, 2.812500, 0.618436
 1587, 2.833333, 0.600556
 1588, 2.854167, 0.598089
 1589, 2.875000, 0.606916
 1590, 2.895833, 0.616831
 1591, 2.916667, 0.617613
 1592, 2.937500, 0.605084
 1593, 2.958333, 0.583622
 1594, 2.979167, 0.563648
 1595, 3.000000, 0.555556
 1596, 0.000000, 0.611111
 1597, 0.020833, 0.619203
 1598, 0.041667, 0.639178
 1599, 0.062500, 0.660640
 1600, 0.083333, 0.673169
 1601, 0.104167, 0.672387
 1602, 0.125000, 0.662472
 1603, 0.145833, 0.653645
 1604, 0.166667, 0.656111
 1605, 0.187500, 0.673992
 1606, 0.208333, 0.702817
 1607, 0.229167, 0.732041
 1608, 0.250000, 0.751111
 1609, 0.270833, 0.755536
 1610, 0.291667, 0.749405
 1611, 0.312500, 0.742875
 1612, 0.333333, 0.746111
 1613, 0.354167, 0.763222
 1614, 0.375000, 0.789751
 1615, 0.395833, 0.815191
 1616, 0.416667, 0.829053
 1617, 0.437500, 0.826938
 1618, 0.458333, 0.813044
 1619, 0.479167, 0.797663
 1620, 0.500000, 0.791111
 1621, 0.520833, 0.797663
 1622, 0.541667, 0.813044
 1623, 0.562500, 0.826938
 1624, 0.583333, 0.829053
 1625, 0.604167, 0.815191
 1626, 0.625000, 0.789751
 1627, 0.645833, 0.763222
 1628, 0.666667, 0.746111
 1629, 0.687500, 0.742875
 1630, 0.708333, 0.749405
 1631, 0.729167, 0.755536
 1632, 0.750000, 0.751111
 1633, 0.770833, 0.732041
 1634, 0.791667, 0.702817
 1635, 0.812500, 0.673992
 1636, 0.833333, 0.656111
 1637, 0.854167, 0.653645
 1638, 0.875000, 0.662472
 1639, 0.895833, 0.672387
 1640, 0.916667, 0.673169
 1641, 0.937500, 0.660640
 1642, 0.958333, 0.639178
 1643, 0.979167, 0.619203
 1644, 1.000000, 0.611111
 1645, 1.020833, 0.619203
 1646, 1.041667, 0.639178
 1647, 1.062500, 0.660640
 1648, 1.083333, 0.673169
 1649, 1.104167, 0.672387
 1650, 1.125000, 0.662472
 1651, 1.145833, 0.653645
 1652, 1.166667, 0.656111
 1653, 1.187500, 0.673992
 1654, 1.208333, 0.702817
 1655, 1.229167, 0.732041
 1656, 1.250000, 0.751111
 1657, 1.270833, 0.755536
 1658, 1.291667, 0.749405
 1659, 1.312500, 0.742875
 1660, 1.333333, 0.746111
 1661, 1.354167, 0.763222
 1662, 1.375000, 0.789751
 1663, 1.395833, 0.815191
 1664, 1.416667, 0.829053
 1665, 1.437500, 0.826938
 1666, 1.458333, 0.813044
 1667, 1.479167, 0.797663
 1668, 1.500000, 0.791111
 1669, 1.520833, 0.797663
 1670, 1.541667, 0.813044
 1671, 1.562500, 0.826938
 1672, 1.583333, 0.829053
 1673, 1.604167, 0.815191
 1674, 1.625000, 0.789751
 1675, 1.645833, 0.763222
 1676, 1.666667, 0.746111
 1677, 1.687500, 0.742875
 1678, 1.708333, 0.749405
 1679, 1.729167, 0.755536
 1680, 1.750000, 0.751111
 1681, 1.770833, 0.732041
 1682, 1.791667, 0.702817
 1683, 1.812500, 0.673992
 1684, 1.833333, 0.656111
 1685, 1.854167, 0.653645
 1686, 1.875000, 0.662472
 1687, 1.895833, 0.672387
 1688, 1.916667, 0.673169
 1689, 1.937500, 0.660640
 1690, 1.958333, 0.639178
 1691, 1.979167, 0.619203
 1692, 2.000000, 0.611111
 1693, 2.020833, 0.619203
 1694, 2.041667, 0.639178
 1695, 2.062500, 0.660640
 1696, 2.083333, 0.673169
 1697, 2.104167, 0.672387
 1698, 2.125000, 0.662472
 1699, 2.145833, 0.653645
 1700, 2.166667, 0.656111
 1701, 2.187500, 0.673992
 1702, 2.208333, 0.702817
 1703, 2.229167, 0.732041
 1704, 2.250000, 0.751111
 1705, 2.270833, 0.755536
 1706, 2.291667, 0.749405
 1707, 2.312500, 0.742875
 1708, 2.333333, 0.746111
 1709, 2.354167, 0.763222
 1710, 2.375000, 0.789751
 1711, 2.395833, 0.815191
 1712, 2.416667, 0.829053
 1713, 2.437500, 0.826938
 1714, 2.458333, 0.813044
 1715, 2.479167, 0.797663
 1716, 2.500000, 0.791111
 1717, 2.520833, 0.797663
 1718, 2.541667, 0.813044
 1719, 2.562500, 0.826938
 1720, 2.583333, 0.829053
 1721, 2.604167, 0.815191
 1722, 2.625000, 0.789751
 1723, 2.645833, 0.763222
 1724, 2.666667, 0.746111
 1725, 2.687500, 0.742875
 1726, 2.708333, 0.749405
 1727, 2.729167, 0.755536
 1728, 2.750000, 0.751111
 1729, 2.770833, 0.732041
 1730, 2.791667, 0.702817
 1731, 2.812500, 0.673992
 1732, 2.833333, 0.656111
 1733, 2.854167, 0.653645
 1734, 2.875000, 0.662472
 1735, 2.895833, 0.672387
 1736, 2.916667, 0.673169
 1737, 2.937500, 0.660640
 1738, 2.958333, 0.639178
 1739, 2.979167, 0.619203
 1740, 3.000000, 0.611111
 1741, 0.000000, 0.666667
 1742, 0.020833, 0.674759
 1743, 0.041667, 0.694733
 1744, 0.062500, 0.716195
 1745, 0.083333, 0.728724
 1746, 0.104167, 0.727943
 1747, 0.125000, 0.718027
 1748, 0.145833, 0.709200
 1749, 0.166667, 0.711667
 1750, 0.187500, 0.729547
 1751, 0.208333, 0.758373
 1752, 0.229167, 0.787597
 1753, 0.250000, 0.806667
 1754, 0.270833, 0.811092
 1755, 0.291667, 0.804960
 1756, 0.312500, 0.798431
 1757, 0.333333, 0.801667
 1758, 0.354167, 0.818778
 1759, 0.375000, 0.845306
 1760, 0.395833, 0.870746
 1761, 0.416667, 0.884609
 1762, 0.437500, 0.882493
 1763, 0.458333, 0.868600
 1764, 0.479167, 0.853219
 1765, 0.500000, 0.846667
 1766, 0.520833, 0.853219
 1767, 0.541667, 0.868600
 1768, 0.562500, 0.882493
 1769, 0.583333, 0.884609
 1770, 0.604167, 0.870746
 1771, 0.625000, 0.845306
 1772, 0.645833, 0.818778
 1773, 0.666667, 0.801667
 1774, 0.687500, 0.798431
 1775, 0.708333, 0.804960
 1776, 0.729167, 0.811092
 1777, 0.750000, 0.806667
 1778, 0.770833, 0.787597
 1779, 0.791667, 0.758373
 1780, 0.812500, 0.729547
 1781, 0.833333, 0.711667
 1782, 0.854167, 0.709200
 1783, 0.875000, 0.718027
 1784, 0.895833, 0.727943
 1785, 0.916667, 0.728724
 1786, 0.937500, 0.716195
 1787, 0.958333, 0.694733
 1788, 0.979167, 0.674759
 1789, 1.000000, 0.666667
 1790, 1.020833, 0.674759
 1791, 1.041667, 0.694733
 1792, 1.062500, 0.716195
 1793, 1.083333, 0.728724
 1794, 1.104167, 0.727943
 1795, 1.125000, 0.718027
 1796, 1.145833, 0.709200
 1797, 1.166667, 0.711667
 1798, 1.187500, 0.729547
 1799, 1.208333, 0.758373
 1800, 1.229167, 0.787597
 1801, 1.250000, 0.806667
 1802, 1.270833, 0.811092
 1803, 1.291667, 0.804960
 1804, 1.312500, 0.798431
 1805, 1.333333, 0.801667
 1806, 1.354167, 0.818778
 1807, 1.375000, 0.845306
 1808, 1.395833, 0.870746
 1809, 1.416667, 0.884609
 1810, 1.437500, 0.882493
 1811, 1.458333, 0.868600
 1812, 1.479167, 0.853219
 1813, 1.500000, 0.846667
 1814, 1.520833, 0.853219
 1815, 1.541667, 0.868600
 1816, 1.562500, 0.882493
 1817, 1.583333, 0.884609
 1818, 1.604167, 0.870746
 1819, 1.625000, 0.845306
 1820, 1.645833, 0.818778
 1821, 1.666667, 0.801667
 1822, 1.687500, 0.798431
 1823, 1.708333, 0.804960
 1824, 1.729167, 0.811092
 1825, 1.750000, 0.806667
 1826, 1.770833, 0.787597
 1827, 1.791667, 0.758373
 1828, 1.812500, 0.729547
 1829, 1.833333, 0.711667
 1830, 1.854167, 0.709200
 1831, 1.875000, 0.718027
 1832, 1.895833, 0.727943
 1833, 1.916667, 0.728724
 1834, 1.937500, 0.716195
 1835, 1.958333, 0.694733
 1836, 1.979167, 0.674759
 1837, 2.000000, 0.666667
 1838, 2.020833, 0.674759
 1839, 2.041667, 0.694733
 1840, 2.062500, 0.716195
 1841, 2.083333, 0.728724
 1842, 2.104167, 0.727943
 1843, 2.125000, 0.718027
 1844, 2.145833, 0.709200
 1845, 2.166667, 0.711667
 1846, 2.187500, 0.729547
 1847, 2.208333, 0.758373
 1848, 2.229167, 0.787597
 1849, 2.250000, 0.806667
 1850, 2.270833, 0.811092
 1851, 2.291667, 0.804960
 1852, 2.312500, 0.798431
 1853, 2.333333, 0.801667
 1854, 2.354167, 0.818778
 1855, 2.375000, 0.845306
 1856, 2.395833, 0.870746
 1857, 2.416667, 0.884609
 1858, 2.437500, 0.882493
 1859, 2.458333, 0.868600
 1860, 2.479167, 0.853219
 1861, 2.500000, 0.846667
 1862, 2.520833, 0.853219
 1863, 2.541667, 0.868600
 1864, 2.562500, 0.882493
 1865, 2.583333, 0.884609
 1866, 2.604167, 0.870746
 1867, 2.625000, 0.845306
 1868, 2.645833, 0.818778
 1869, 2.666667, 0.801667
 1870, 2.687500, 0.798431
 1871, 2.708333, 0.804960
 1872, 2.729167, 0.811092
 1873, 2.750000, 0.806667
 1874, 2.770833, 0.787597
 1875, 2.791667, 0.758373
 1876, 2.812500, 0.729547
 1877, 2.833333, 0.711667
 1878, 2.854167, 0.709200
 1879, 2.875000, 0.718027
 1880, 2.895833, 0.727943
 1881, 2.916667, 0.728724
 1882, 2.937500, 0.716195
 1883, 2.958333, 0.694733
 1884, 2.979167, 0.674759
 1885, 3.000000, 0.666667
 1886, 0.000000, 0.722222
 1887, 0.020833, 0.730315
 1888, 0.041667, 0.750289
 1889, 0.062500, 0.771751
 1890, 0.083333, 0.784280
 1891, 0.104167, 0.783498
 1892, 0.125000, 0.773583
 1893, 0.145833, 0.764756
 1894, 0.166667, 0.767222
 1895, 0.187500, 0.785103
 1896, 0.208333, 0.813929
 1897, 0.229167, 0.843153
 1898, 0.250000, 0.862222
 1899, 0.270833, 0.866647
 1900, 0.291667, 0.860516
 1901, 0.312500, 0.853986
 1902, 0.333333, 0.857222
 1903, 0.354167, 0.874333
 1904, 0.375000, 0.900862
 1905, 0.395833, 0.926302
 1906, 0.416667, 0.940165
 1907, 0.437500, 0.938049
 1908, 0.458333, 0.924156
 1909, 0.479167, 0.908775
 1910, 0.500000, 0.902222
 1911, 0.520833, 0.908775
 1912, 0.541667, 0.924156
 1913, 0.562500, 0.938049
 1914, 0.583333, 0.940165
 1915, 0.604167, 0.926302
 1916, 0.625000, 0.900862
 1917, 0.645833, 0.874333
 1918, 0.666667, 0.857222
 1919, 0.687500, 0.853986
 1920, 0.708333, 0.860516
 1921, 0.729167, 0.866647
 1922, 0.750000, 0.862222
 1923, 0.770833, 0.843153
 1924, 0.791667, 0.813929
 1925, 0.812500, 0.785103
 1926, 0.833333, 0.767222
 1927, 0.854167, 0.764756
 1928, 0.875000, 0.773583
 1929, 0.895833, 0.783498
 1930, 0.916667, 0.784280
 1931, 0.937500, 0.771751
 1932, 0.958333, 0.750289
 1933, 0.979167, 0.730315
 1934, 1.000000, 0.722222
 1935, 1.020833, 0.730315
 1936, 1.041667, 0.750289
 1937, 1.062500, 0.771751
 1938, 1.083333, 0.784280
 1939, 1.104167, 0.783498
 1940, 1.125000, 0.773583
 1941, 1.145833, 0.764756
 1942, 1.166667, 0.767222
 1943, 1.187500, 0.785103
 1944, 1.208333, 0.813929
 1945, 1.229167, 0.843153
 1946, 1.250000, 0.862222
 1947, 1.270833, 0.866647
 1948, 1.291667, 0.860516
 1949, 1.312500, 0.853986
 1950, 1.333333, 0.857222
 1951, 1.354167, 0.874333
 1952, 1.375000, 0.900862
 1953, 1.395833, 0.926302
 1954, 1.416667, 0.940165
 1955, 1.437500, 0.938049
 1956, 1.458333, 0.924156
 1957, 1.479167, 0.908775
 1958, 1.500000, 0.902222
 1959, 1.520833, 0.908775
 1960, 1.541667, 0.924156
 1961, 1.562500, 0.938049
 1962, 1.583333, 0.940165
 1963, 1.604167, 0.926302
 1964, 1.625000, 0.900862
 1965, 1.645833, 0.874333
 1966, 1.666667, 0.857222
 1967, 1.687500, 0.853986
 1968, 1.708333, 0.860516
 1969, 1.729167, 0.866647
 1970, 1.750000, 0.862222
 1971, 1.770833, 0.843153
 1972, 1.791667, 0.813929
 1973, 1.812500, 0.785103
 1974, 1.833333, 0.767222
 1975, 1.854167, 0.764756
 1976, 1.875000, 0.773583
 1977, 1.895833, 0.783498
 1978, 1.916667, 0.784280
 1979, 1.937500, 0.771751
 1980, 1.958333, 0.750289
 1981, 1.979167, 0.730315
 1982, 2.000000, 0.722222
 1983, 2.020833, 0.730315
 1984, 2.041667, 0.750289
 1985, 2.062500, 0.771751
 1986, 2.083333, 0.784280
 1987, 2.104167, 0.783498
 1988, 2.125000, 0.773583
 1989, 2.145833, 0.764756
 1990, 2.166667, 0.767222
 1991, 2.187500, 0.785103
 1992, 2.208333, 0.813929
 1993, 2.229167, 0.843153
 1994, 2.250000, 0.862222
 1995, 2.270833, 0.866647
 1996, 2.291667, 0.860516
 1997, 2.312500, 0.853986
 1998, 2.333333, 0.857222
 1999, 2.354167, 0.874333
 2000, 2.375000, 0.900862
 2001, 2.395833, 0.926302
 2002, 2.416667, 0.940165
 2003, 2.437500, 0.938049
 2004, 2.458333, 0.924156
 2005, 2.479167, 0.908775
 2006, 2.500000, 0.902222
 2007, 2.520833, 0.908775
 2008, 2.541667, 0.924156
 2009, 2.562500, 0.938049
 2010, 2.583333, 0.940165
 2011, 2.604167, 0.926302
 2012, 2.625000, 0.900862
 2013, 2.645833, 0.874333
 2014, 2.666667, 0.857222
 2015, 2.687500, 0.853986
 2016, 2.708333, 0.860516
 2017, 2.729167, 0.866647
 2018, 2.750000, 0.862222
 2019, 2.770833, 0.843153
 2020, 2.791667, 0.813929
 2021, 2.812500, 0.785103
 2022, 2.833333, 0.767222
 2023, 2.854167, 0.764756
 2024, 2.875000, 0.773583
 2025, 2.895833, 0.783498
 2026, 2.916667, 0.784280
 2027, 2.937500, 0.771751
 2028, 2.958333, 0.750289
 2029, 2.979167, 0.730315
 2030, 3.000000, 0.722222
 2031, 0.000000, 0.777778
 2032, 0.020833, 0.785870
 2033, 0.041667, 0.805844
 2034, 0.062500, 0.827306
 2035, 0.083333, 0.839835
 2036, 0.104167, 0.839054
 2037, 0.125000, 0.829138
 2038, 0.145833, 0.820312
 2039, 0.166667, 0.822778
 2040, 0.187500, 0.840659
 2041, 0.208333, 0.869484
 2042, 0.229167, 0.898708
 2043, 0.250000, 0.917778
 2044, 0.270833, 0.922203
 2045, 0.291667, 0.916071
 2046, 0.312500, 0.909542
 2047, 0.333333, 0.912778
 2048, 0.354167, 0.929889
 2049, 0.375000, 0.956417
 2050, 0.395833, 0.981857
 2051, 0.416667, 0.995720
 2052, 0.437500, 0.993605
 2053, 0.458333, 0.979711
 2054, 0.479167, 0.964330
 2055, 0.500000, 0.957778
 2056, 0.520833, 0.964330
 2057, 0.541667, 0.979711
 2058, 0.562500, 0.993605
 2059, 0.583333, 0.995720
 2060, 0.604167, 0.981857
 2061, 0.625000, 0.956417
 2062, 0.645833, 0.929889
 2063, 0.666667, 0.912778
 2064, 0.687500, 0.909542
 2065, 0.708333, 0.916071
 2066, 0.729167, 0.922203
 2067, 0.750000, 0.917778
 2068, 0.770833, 0.898708
 2069, 0.791667, 0.869484
 2070, 0.812500, 0.840659
 2071, 0.833333, 0.822778
 2072, 0.854167, 0.820312
 2073, 0.875000, 0.829138
 2074, 0.895833, 0.839054
 2075, 0.916667, 0.839835
 2076, 0.937500, 0.827306
 2077, 0.958333, 0.805844
 2078, 0.979167, 0.785870
 2079, 1.000000, 0.777778
 2080, 1.020833, 0.785870
 2081, 1.041667, 0.805844
 2082, 1.062500, 0.827306
 2083, 1.083333, 0.839835
 2084, 1.104167, 0.839054
 2085, 1.125000, 0.829138
 2086, 1.145833, 0.820312
 2087, 1.166667, 0.822778
 2088, 1.187500, 0.840659
 2089, 1.208333, 0.869484
 2090, 1.229167, 0.898708
 2091, 1.250000, 0.917778
 2092, 1.270833, 0.922203
 2093, 1.291667, 0.916071
 2094, 1.312500, 0.909542
 2095, 1.333333, 0.912778
 2096, 1.354167, 0.929889
 2097, 1.375000, 0.956417
 2098, 1.395833, 0.981857
 2099, 1.416667, 0.995720
 2100, 1.437500, 0.993605
 2101, 1.458333, 0.979711
 2102, 1.479167, 0.964330
 2103, 1.500000, 0.957778
 2104, 1.520833, 0.964330
 2105, 1.541667, 0.979711
 2106, 1.562500, 0.993605
 2107, 1.583333, 0.995720
 2108, 1.604167, 0.981857
 2109, 1.625000, 0.956417
 2110, 1.645833, 0.929889
 2111, 1.666667, 0.912778
 2112, 1.687500, 0.909542
 2113, 1.708333, 0.916071
 2114, 1.729167, 0.922203
 2115, 1.750000, 0.917778
 2116, 1.770833, 0.898708
 2117, 1.791667, 0.869484
 2118, 1.812500, 0.840659
 2119, 1.833333, 0.822778
 2120, 1.854167, 0.820312
 2121, 1.875000, 0.829138
 2122, 1.895833, 0.839054
 2123, 1.916667, 0.839835
 2124, 1.937500, 0.827306
 2125, 1.958333, 0.805844
 2126, 1.979167, 0.785870
 2127, 2.000000, 0.777778
 2128, 2.020833, 0.785870
 2129, 2.041667, 0.805844
 2130, 2.062500, 0.827306
 2131, 2.083333, 0.839835
 2132, 2.104167, 0.839054
 2133, 2.125000, 0.829138
 2134, 2.145833, 0.820312
 2135, 2.166667, 0.822778
 2136, 2.187500, 0.840659
 2137, 2.208333, 0.869484
 2138, 2.229167, 0.898708
 2139, 2.250000, 0.917778
 2140, 2.270833, 0.922203
 2141, 2.291667, 0.916071
 2142, 2.312500, 0.909542
 2143, 2.333333, 0.912778
 2144, 2.354167, 0.929889
 2145, 2.375000, 0.956417
 2146, 2.395833, 0.981857
 2147, 2.416667, 0.995720
 2148, 2.437500, 0.993605
 2149, 2.458333, 0.979711
 2150, 2.479167, 0.964330
 2151, 2.500000, 0.957778
 2152, 2.520833, 0.964330
 2153, 2.541667, 0.979711
 2154, 2.562500, 0.993605
 2155, 2.583333, 0.995720
 2156, 2.604167, 0.981857
 2157, 2.625000, 0.956417
 2158, 2.645833, 0.929889
 2159, 2.666667, 0.912778
 2160, 2.687500, 0.909542
 2161, 2.708333, 0.916071
 2162, 2.729167, 0.922203
 2163, 2.750000, 0.917778
 2164, 2.770833, 0.898708
 2165, 2.791667, 0.869484
 2166, 2.812500, 0.840659
 2167, 2.833333, 0.822778
 2168, 2.854167, 0.820312
 2169, 2.875000, 0.829138
 2170, 2.895833, 0.839054
 2171, 2.916667, 0.839835
 2172, 2.937500, 0.827306
 2173, 2.958333, 0.805844
 2174, 2.979167, 0.785870
 2175, 3.000000, 0.777778
 2176, 0.000000, 0.833333
 2177, 0.020833, 0.841426
 2178, 0.041667, 0.861400
 2179, 0.062500, 0.882862
 2180, 0.083333, 0.895391
 2181, 0.104167, 0.894609
 2182, 0.125000, 0.884694
 2183, 0.145833, 0.875867
 2184, 0.166667, 0.878333
 2185, 0.187500, 0.896214
 2186, 0.208333, 0.925040
 2187, 0.229167, 0.954264
 2188, 0.250000, 0.973333
 2189, 0.270833, 0.977758
 2190, 0.291667, 0.971627
 2191, 0.312500, 0.965097
 2192, 0.333333, 0.968333
 2193, 0.354167, 0.985444
 2194, 0.375000, 1.011973
 2195, 0.395833, 1.037413
 2196, 0.416667, 1.051276
 2197, 0.437500, 1.049160
 2198, 0.458333, 1.035267
 2199, 0.479167, 1.019886
 2200, 0.500000, 1.013333
 2201, 0.520833, 1.019886
 2202, 0.541667, 1.035267
 2203, 0.562500, 1.049160
 2204, 0.583333, 1.051276
 2205, 0.604167, 1.037413
 2206, 0.625000, 1.011973
 2207, 0.645833, 0.985444
 2208, 0.666667, 0.968333
 2209, 0.687500, 0.965097
 2210, 0.708333, 0.971627
 2211, 0.729167, 0.977758
 2212, 0.750000, 0.973333
 2213, 0.770833, 0.954264
 2214, 0.791667, 0.925040
 2215, 0.812500, 0.896214
 2216, 0.833333, 0.878333
 2217, 0.854167, 0.875867
 2218, 0.875000, 0.884694
 2219, 0.895833, 0.894609
 2220, 0.916667, 0.895391
 2221, 0.937500, 0.882862
 2222, 0.958333, 0.861400
 2223, 0.979167, 0.841426
 2224, 1.000000, 0.833333
 2225, 1.020833, 0.841426
 2226, 1.041667, 0.861400
 2227, 1.062500, 0.882862
 2228, 1.083333, 0.895391
 2229, 1.104167, 0.894609
 2230, 1.125000, 0.884694
 2231, 1.145833, 0.875867
 2232, 1.166667, 0.878333
 2233, 1.187500, 0.896214
 2234, 1.208333, 0.925040
 2235, 1.229167, 0.954264
 2236, 1.250000, 0.973333
 2237, 1.270833, 0.977758
 2238, 1.291667, 0.971627
 2239, 1.312500, 0.965097
 2240, 1.333333, 0.968333
 2241, 1.354167, 0.985444
 2242, 1.375000, 1.011973
 2243, 1.395833, 1.037413
 2244, 1.416667, 1.051276
 2245, 1.437500, 1.049160
 2246, 1.458333, 1.035267
 2247, 1.479167, 1.019886
 2248, 1.500000, 1.013333
 2249, 1.520833, 1.019886
 2250, 1.541667, 1.035267
 2251, 1.562500, 1.049160
 2252, 1.583333, 1.051276
 2253, 1.604167, 1.037413
 2254, 1.625000, 1.011973
 2255, 1.645833, 0.985444
 2256, 1.666667, 0.968333
 2257, 1.687500, 0.965097
 2258, 1.708333, 0.971627
 2259, 1.729167, 0.977758
 2260, 1.750000, 0.973333
 2261, 1.770833, 0.954264
 2262, 1.791667, 0.925040
 2263, 1.812500, 0.896214
 2264, 1.833333, 0.878333
 2265, 1.854167, 0.875867
 2266, 1.875000, 0.884694
 2267, 1.895833, 0.894609
 2268, 1.916667, 0.895391
 2269, 1.937500, 0.882862
 2270, 1.958333, 0.861400
 2271, 1.979167, 0.841426
 2272, 2.000000, 0.833333
 2273, 2.020833, 0.841426
 2274, 2.041667, 0.861400
 2275, 2.062500, 0.882862
 2276, 2.083333, 0.895391
 2277, 2.104167, 0.894609
 2278, 2.125000, 0.884694
 2279, 2.145833, 0.875867
 2280, 2.166667, 0.878333
 2281, 2.187500, 0.896214
 2282, 2.208333, 0.925040
 2283, 2.229167, 0.954264
 2284, 2.250000, 0.973333
 2285, 2.270833, 0.977758
 2286, 2.291667, 0.971627
 2287, 2.312500, 0.965097
 2288, 2.333333, 0.968333
 2289, 2.354167, 0.985444
 2290, 2.375000, 1.011973
 2291, 2.395833, 1.037413
 2292, 2.416667, 1.051276
 2293, 2.437500, 1.049160
 2294, 2.458333, 1.035267
 2295, 2.479167, 1.019886
 2296, 2.500000, 1.013333
 2297, 2.520833, 1.019886
 2298, 2.541667, 1.035267
 2299, 2.562500, 1.049160
 2300, 2.583333, 1.051276
 2301, 2.604167, 1.037413
 2302, 2.625000, 1.011973
 2303, 2.645833, 0.985444
 2304, 2.666667, 0.968333
 2305, 2.687500, 0.965097
 2306, 2.708333, 0.971627
 2307, 2.729167, 0.977758
 2308, 2.750000, 0.973333
 2309, 2.770833, 0.954264
 2310, 2.791667, 0.925040
 2311, 2.812500, 0.896214
 2312, 2.833333, 0.878333
 2313, 2.854167, 0.875867
 2314, 2.875000, 0.884694
 2315, 2.895833, 0.894609
 2316, 2.916667, 0.895391
 2317, 2.937500, 0.882862
 2318, 2.958333, 0.861400
 2319, 2.979167, 0.841426
 2320, 3.000000, 0.833333
 2321, 0.000000, 0.888889
 2322, 0.020833, 0.896981
 2323, 0.041667, 0.916956
 2324, 0.062500, 0.938417
 2325, 0.083333, 0.950947
 2326, 0.104167, 0.950165
 2327, 0.125000, 0.940249
 2328, 0.145833, 0.931423
 2329, 0.166667, 0.933889
 2330, 0.187500, 0.951770
 2331, 0.208333, 0.980595
 2332, 0.229167, 1.009819
 2333, 0.250000, 1.028889
 2334, 0.270833, 1.033314
 2335, 0.291667, 1.027183
 2336, 0.312500, 1.020653
 2337, 0.333333, 1.023889
 2338, 0.354167, 1.041000
 2339, 0.375000, 1.067528
 2340, 0.395833, 1.092968
 2341, 0.416667, 1.106831
 2342, 0.437500, 1.104716
 2343, 0.458333, 1.090822
 2344, 0.479167, 1.075441
 2345, 0.500000, 1.068889
 2346, 0.520833, 1.075441
 2347, 0.541667, 1.090822
 2348, 0.562500, 1.104716
 2349, 0.583333, 1.106831
 2350, 0.604167, 1.092968
 2351, 0.625000, 1.067528
 2352, 0.645833, 1.041000
 2353, 0.666667, 1.023889
 2354, 0.687500, 1.020653
 2355, 0.708333, 1.027183
 2356, 0.729167, 1.033314
 2357, 0.750000, 1.028889
 2358, 0.770833, 1.009819
 2359, 0.791667, 0.980595
 2360, 0.812500, 0.951770
 2361, 0.833333, 0.933889
 2362, 0.854167, 0.931423
 2363, 0.875000, 0.940249
 2364, 0.895833, 0.950165
 2365, 0.916667, 0.950947
 2366, 0.937500, 0.938417
 2367, 0.958333, 0.916956
 2368, 0.979167, 0.896981
 2369, 1.000000, 0.888889
 2370, 1.020833, 0.896981
 2371, 1.041667, 0.916956
 2372, 1.062500, 0.938417
 2373, 1.083333, 0.950947
 2374, 1.104167, 0.950165
 2375, 1.125000, 0.940249
 2376, 1.145833, 0.931423
 2377, 1.166667, 0.933889
 2378, 1.187500, 0.951770
 2379, 1.208333, 0.980595
 2380, 1.229167, 1.009819
 2381, 1.250000, 1.028889
 2382, 1.270833, 1.033314
 2383, 1.291667, 1.027183
 2384, 1.312500, 1.020653
 2385, 1.333333, 1.023889
 2386, 1.354167, 1.041000
 2387, 1.375000, 1.067528
 2388, 1.395833, 1.092968
 2389, 1.416667, 1.106831
 2390, 1.437500, 1.104716
 2391, 1.458333, 1.090822
 2392, 1.479167, 1.075441
 2393, 1.500000, 1.068889
 2394, 1.520833, 1.075441
 2395, 1.541667, 1.090822
 2396, 1.562500, 1.104716
 2397, 1.583333, 1.106831
 2398, 1.604167, 1.092968
 2399, 1.625000, 1.067528
 2400, 1.645833, 1.041000
 2401, 1.666667, 1.023889
 2402, 1.687500, 1.020653
 2403, 1.708333, 1.027183
 2404, 1.729167, 1.033314
 2405, 1.750000, 1.028889
 2406, 1.770833, 1.009819
 2407, 1.791667, 0.980595
 2408, 1.812500, 0.951770
 2409, 1.833333, 0.933889
 2410, 1.854167, 0.931423
 2411, 1.875000, 0.940249
 2412, 1.895833, 0.950165
 2413, 1.916667, 0.950947
 2414, 1.937500, 0.938417
 2415, 1.958333, 0.916956
 2416, 1.979167, 0.896981
 2417, 2.000000, 0.888889
 2418, 2.020833, 0.896981
 2419, 2.041667, 0.916956
 2420, 2.062500, 0.938417
 2421, 2.083333, 0.950947
 2422, 2.104167, 0.950165
 2423, 2.125000, 0.940249
 2424, 2.145833, 0.931423
 2425, 2.166667, 0.933889
 2426, 2.187500, 0.951770
 2427, 2.208333, 0.980595
 2428, 2.229167, 1.009819
 2429, 2.250000, 1.028889
 2430, 2.270833, 1.033314
 2431, 2.291667, 1.027183
 2432, 2.312500, 1.020653
 2433, 2.333333, 1.023889
 2434, 2.354167, 1.041000
 2435, 2.375000, 1.067528
 2436, 2.395833, 1.092968
 2437, 2.416667, 1.106831
 2438, 2.437500, 1.104716
 2439, 2.458333, 1.090822
 2440, 2.479167, 1.075441
 2441, 2.500000, 1.068889
 2442, 2.520833, 1.075441
 2443, 2.541667, 1.090822
 2444, 2.562500, 1.104716
 2445, 2.583333, 1.106831
 2446, 2.604167, 1.092968
 2447, 2.625000, 1.067528
 2448, 2.645833, 1.041000
 2449, 2.666667, 1.023889
 2450, 2.687500, 1.020653
 2451, 2.708333, 1.027183
 2452, 2.729167, 1.033314
 2453, 2.750000, 1.028889
 2454, 2.770833, 1.009819
 2455, 2.791667, 0.980595
 2456, 2.812500, 0.951770
 2457, 2.833333, 0.933889
 2458, 2.854167, 0.931423
 2459, 2.875000, 0.940249
 2460, 2.895833, 0.950165
 2461, 2.916667, 0.950947
 2462, 2.937500, 0.938417
 2463, 2.958333, 0.916956
 2464, 2.979167, 0.896981
 2465, 3.000000, 0.888889
 2466, 0.000000, 0.944444
 2467, 0.020833, 0.952537
 2468, 0.041667, 0.972511
 2469, 0.062500, 0.993973
 2470, 0.083333, 1.006502
 2471, 0.104167, 1.005720
 2472, 0.125000, 0.995805
 2473, 0.145833, 0.986978
 2474, 0.166667, 0.989444
 2475, 0.187500, 1.007325
 2476, 0.208333, 1.036151
 2477, 0.229167, 1.065375
 2478, 0.250000, 1.084444
 2479, 0.270833, 1.088869
 2480, 0.291667, 1.082738
 2481, 0.312500, 1.076208
 2482, 0.333333, 1.079444
 2483, 0.354167, 1.096555
 2484, 0.375000, 1.123084
 2485, 0.395833, 1.148524
 2486, 0.416667, 1.162387
 2487, 0.437500, 1.160271
 2488, 0.458333, 1.146378
 2489, 0.479167, 1.130997
 2490, 0.500000, 1.124444
 2491, 0.520833, 1.130997
 2492, 0.541667, 1.146378
 2493, 0.562500, 1.160271
 2494, 0.583333, 1.162387
 2495, 0.604167, 1.148524
 2496, 0.625000, 1.123084
 2497, 0.645833, 1.096555
 2498, 0.666667, 1.079444
 2499, 0.687500, 1.076208
 2500, 0.708333, 1.082738
 2501, 0.729167, 1.088869
 2502, 0.750000, 1.084444
 2503, 0.770833, 1.065375
 2504, 0.791667, 1.036151
 2505, 0.812500, 1.007325
 2506, 0.833333, 0.989444
 2507, 0.854167, 0.986978
 2508, 0.875000, 0.995805
 2509, 0.895833, 1.005720
 2510, 0.916667, 1.006502
 2511, 0.937500, 0.993973
 2512, 0.958333, 0.972511
 2513, 0.979167, 0.952537
 2514, 1.000000, 0.944444
 2515, 1.020833, 0.952537
 2516, 1.041667, 0.972511
 2517, 1.062500, 0.993973
 2518, 1.083333, 1.006502
 2519, 1.104167, 1.005720
 2520, 1.125000, 0.995805
 2521, 1.145833, 0.986978
 2522, 1.166667, 0.989444
 2523, 1.187500, 1.007325
 2524, 1.208333, 1.036151
 2525, 1.229167, 1.065375
 2526, 1.250000, 1.084444
 2527, 1.270833, 1.088869
 2528, 1.291667, 1.082738
 2529, 1.312500, 1.076208
 2530, 1.333333, 1.079444
 2531, 1.354167, 1.096555
 2532, 1.375000, 1.123084
 2533, 1.395833, 1.148524
 2534, 1.416667, 1.162387
 2535, 1.437500, 1.160271
 2536, 1.458333, 1.146378
 2537, 1.479167, 1.130997
 2538, 1.500000, 1.124444
 2539, 1.520833, 1.130997
 2540, 1.541667, 1.146378
 2541, 1.562500, 1.160271
 2542, 1.583333, 1.162387
 2543, 1.604167, 1.148524
 2544, 1.625000, 1.123084
 2545, 1.645833, 1.096555
 2546, 1.666667, 1.079444
 2547, 1.687500, 1.076208
 2548, 1.708333, 1.082738
 2549, 1.729167, 1.088869
 2550, 1.750000, 1.084444
 2551, 1.770833, 1.065375
 2552, 1.791667, 1.036151
 2553, 1.812500, 1.007325
 2554, 1.833333, 0.989444
 2555, 1.854167, 0.986978
 2556, 1.875000, 0.995805
 2557, 1.895833, 1.005720
 2558, 1.916667, 1.006502
 2559, 1.937500, 0.993973
 2560, 1.958333, 0.972511
 2561, 1.979167, 0.952537
 2562, 2.000000, 0.944444
 2563, 2.020833, 0.952537
 2564, 2.041667, 0.972511
 2565, 2.062500, 0.993973
 2566, 2.083333, 1.006502
 2567, 2.104167, 1.005720
 2568, 2.125000, 0.995805
 2569, 2.145833, 0.986978
 2570, 2.166667, 0.989444
 2571, 2.187500, 1.007325
 2572, 2.208333, 1.036151
 2573, 2.229167, 1.065375
 2574, 2.250000, 1.084444
 2575, 2.270833, 1.088869
 2576, 2.291667, 1.082738
 2577, 2.312500, 1.076208
 2578, 2.333333, 1.079444
 2579, 2.354167, 1.096555
 2580, 2.375000, 1.123084
 2581, 2.395833, 1.148524
 2582, 2.416667, 1.162387
 2583, 2.437500, 1.160271
 2584, 2.458333, 1.146378
 2585, 2.479167, 1.130997
 2586, 2.500000, 1.124444
 2587, 2.520833, 1.130997
 2588, 2.541667, 1.146378
 2589, 2.562500, 1.160271
 2590, 2.583333, 1.162387
 2591, 2.604167, 1.148524
 2592, 2.625000, 1.123084
 2593, 2.645833, 1.096555
 2594, 2.666667, 1.079444
 2595, 2.687500, 1.076208
 2596, 2.708333, 1.082738
 2597, 2.729167, 1.088869
 2598, 2.750000, 1.084444
 2599, 2.770833, 1.065375
 2600, 2.791667, 1.036151
 2601, 2.812500, 1.007325
 2602, 2.833333, 0.989444
 2603, 2.854167, 0.986978
 2604, 2.875000, 0.995805
 2605, 2.895833, 1.005720
 2606, 2.916667, 1.006502
 2607, 2.937500, 0.993973
 2608, 2.958333, 0.972511
 2609, 2.979167, 0.952537
 2610, 3.000000, 0.944444
 2611, 0.000000, 1.000000
 2612, 0.020833, 1.008092
 2613, 0.041667, 1.028067
 2614, 0.062500, 1.049529
 2615, 0.083333, 1.062058
 2616, 0.104167, 1.061276
 2617, 0.125000, 1.051360
 2618, 0.145833, 1.042534
 2619, 0.166667, 1.045000
 2620, 0.187500, 1.062881
 2621, 0.208333, 1.091706
 2622, 0.229167, 1.120930
 2623, 0.250000, 1.140000
 2624, 0.270833, 1.144425
 2625, 0.291667, 1.138294
 2626, 0.312500, 1.131764
 2627, 0.333333, 1.135000
 2628, 0.354167, 1.152111
 2629, 0.375000, 1.178640
 2630, 0.395833, 1.204079
 2631, 0.416667, 1.217942
 2632, 0.437500, 1.215827
 2633, 0.458333, 1.201933
 2634, 0.479167, 1.186552
 2635, 0.500000, 1.180000
 2636, 0.520833, 1.186552
 2637, 0.541667, 1.201933
 2638, 0.562500, 1.215827
 2639, 0.583333, 1.217942
 2640, 0.604167, 1.204079
 2641, 0.625000, 1.178640
 2642, 0.645833, 1.152111
 2643, 0.666667, 1.135000
 2644, 0.687500, 1.131764
 2645, 0.708333, 1.138294
 2646, 0.729167, 1.144425
 2647, 0.750000, 1.140000
 2648, 0.770833, 1.120930
 2649, 0.791667, 1.091706
 2650, 0.812500, 1.062881
 2651, 0.833333, 1.045000
 2652, 0.854167, 1.042534
 2653, 0.875000, 1.051360
 2654, 0.895833, 1.061276
 2655, 0.916667, 1.062058
 2656, 0.937500, 1.049529
 2657, 0.958333, 1.028067
 2658, 0.979167, 1.008092
 2659, 1.000000, 1.000000
 2660, 1.020833, 1.008092
 2661, 1.041667, 1.028067
 2662, 1.062500, 1.049529
 2663, 1.083333, 1.062058
 2664, 1.104167, 1.061276
 2665, 1.125000, 1.051360
 2666, 1.145833, 1.042534
 2667, 1.166667, 1.045000
 2668, 1.187500, 1.062881
 2669, 1.208333, 1.091706
 2670, 1.229167, 1.120930
 2671, 1.250000, 1.140000
 2672, 1.270833, 1.144425
 2673, 1.291667, 1.138294
 2674, 1.312500, 1.131764
 2675, 1.333333, 1.135000
 2676, 1.354167, 1.152111
 2677, 1.375000, 1.178640
 2678, 1.395833, 1.204079
 2679, 1.416667, 1.217942
 2680, 1.437500, 1.215827
 2681, 1.458333, 1.201933
 2682, 1.479167, 1.186552
 2683, 1.500000, 1.180000
 2684, 1.520833, 1.186552
 2685, 1.541667, 1.201933
 2686, 1.562500, 1.215827
 2687, 1.583333, 1.217942
 2688, 1.604167, 1.204079
 2689, 1.625000, 1.178640
 2690, 1.645833, 1.152111
 2691, 1.666667, 1.135000
 2692, 1.687500, 1.131764
 2693, 1.708333, 1.138294
 2694, 1.729167, 1.144425
 2695, 1.750000, 1.140000
 2696, 1.770833, 1.120930
 2697, 1.791667, 1.091706
 2698, 1.812500, 1.062881
 2699, 1.833333, 1.045000
 2700, 1.854167, 1.042534
 2701, 1.875000, 1.051360
 2702, 1.895833, 1.061276
 2703, 1.916667, 1.062058
 2704, 1.937500, 1.049529
 2705, 1.958333, 1.028067
 2706, 1.979167, 1.008092
 2707, 2.000000, 1.000000
 2708, 2.020833, 1.008092
 2709, 2.041667, 1.028067
 2710, 2.062500, 1.049529
 2711, 2.083333, 1.062058
 2712, 2.104167, 1.061276
 2713, 2.125000, 1.051360
 2714, 2.145833, 1.042534
 2715, 2.166667, 1.045000
 2716, 2.187500, 1.062881
 2717, 2.208333, 1.091706
 2718, 2.229167, 1.120930
 2719, 2.250000, 1.140000
 2720, 2.270833, 1.144425
 2721, 2.291667, 1.138294
 2722, 2.312500, 1.131764
 2723, 2.333333, 1.135000
 2724, 2.354167, 1.152111
 2725, 2.375000, 1.178640
 2726, 2.395833, 1.204079
 2727, 2.416667, 1.217942
 2728, 2.437500, 1.215827
 2729, 2.458333, 1.201933
 2730, 2.479167, 1.186552
 2731, 2.500000, 1.180000
 2732, 2.520833, 1.186552
 2733, 2.541667, 1.201933
 2734, 2.562500, 1.215827
 2735, 2.583333, 1.217942
 2736, 2.604167, 1.204079
 2737, 2.625000, 1.178640
 2738, 2.645833, 1.152111
 2739, 2.666667, 1.135000
 2740, 2.687500, 1.131764
 2741, 2.708333, 1.138294
 2742, 2.729167, 1.144425
 2743, 2.750000, 1.140000
 2744, 2.770833, 1.120930
 2745, 2.791667, 1.091706
 2746, 2.812500, 1.062881
 2747, 2.833333, 1.045000
 2748, 2.854167, 1.042534
 2749, 2.875000, 1.051360
 2750, 2.895833, 1.061276
 2751, 2.916667, 1.062058
 2752, 2.937500, 1.049529
 2753, 2.958333, 1.028067
 2754, 2.979167, 1.008092
 2755, 3.000000, 1.000000
*ELEMENT, TYPE=CPE4
 1, 1, 2, 147, 146
 2, 2, 3, 148, 147
 3, 3, 4, 149, 148
 4, 4, 5, 150, 149
 5, 5, 6, 151, 150
 6, 6, 7, 152, 151
 7, 7, 8, 153, 152
 8, 8, 9, 154, 153
 9, 9, 10, 155, 154
 10, 10, 11, 156, 155
 11, 11, 12, 157, 156
 12, 12, 13, 158, 157
 13, 13, 14, 159, 158
 14, 14, 15, 160, 159
 15, 15, 16, 161, 160
 16, 16, 17, 162, 161
 17, 17, 18, 163, 162
 18, 18, 19, 164, 163
 19, 19, 20, 165, 164
 20, 20, 21, 166, 165
 21, 21, 22, 167, 166
 22, 22, 23, 168, 167
 23, 23, 24, 169, 168
 24, 24, 25, 170, 169
 25, 25, 26, 171, 170
 26, 26, 27, 172, 171
 27, 27, 28, 173, 172
 28, 28, 29, 174, 173
 29, 29, 30, 175, 174
 30, 30, 31, 176, 175
 31, 31, 32, 177, 176
 32, 32, 33, 178, 177
 33, 33, 34, 179, 178
 34, 34, 35, 180, 179
 35, 35, 36, 181, 180
 36, 36, 37, 182, 181
 37, 37, 38, 183, 182
 38, 38, 39, 184, 183
 39, 39, 40, 185, 184
 40, 40, 41, 186, 185
 41, 41, 42, 187, 186
 42, 42, 43, 188, 187
 43, 43, 44, 189, 188
 44, 44, 45, 190, 189
 45, 45, 46, 191, 190
 46, 46, 47, 192, 191
 47, 47, 48, 193, 192
 48, 48, 49, 194, 193
 49, 49, 50, 195, 194
 50, 50, 51, 196, 195
 51, 51, 52, 197, 196
 52, 52, 53, 198, 197
 53, 53, 54, 199, 198
 54, 54, 55, 200, 199
 55, 55, 56, 201, 200
 56, 56, 57, 202, 201
 57, 57, 58, 203, 202
 58, 58, 59, 204, 203
 59, 59, 60, 205, 204
 60, 60, 61, 206, 205
 61, 61, 62, 207, 206
 62, 62, 63, 208, 207
 63, 63, 64, 209, 208
 64, 64, 65, 210, 209
 65, 65, 66, 211, 210
 66, 66, 67, 212, 211
 67, 67, 68, 213, 212
 68, 68, 69, 214, 213
 69, 69, 70, 215, 214
 70, 70, 71, 216, 215
 71, 71, 72, 217, 216
 72, 72, 73, 218, 217
 73, 73, 74, 219, 218
 74, 74, 75, 220, 219
 75, 75, 76, 221, 220
 76, 76, 77, 222, 221
 77, 77, 78, 223, 222
 78, 78, 79, 224, 223
 79, 79, 80, 225, 224
 80, 80, 81, 226, 225
 81, 81, 82, 227, 226
 82, 82, 83, 228, 227
 83, 83, 84, 229, 228
 84, 84, 85, 230, 229
 85, 85, 86, 231, 230
 86, 86, 87, 232, 231
 87, 87, 88, 233, 232
 88, 88, 89, 234, 233
 89, 89, 90, 235, 234
 90, 90, 91, 236, 235
 91, 91, 92, 237, 236
 92, 92, 93, 238, 237
 93, 93, 94, 239, 238
 94, 94, 95, 240, 239
 95, 95, 96, 241, 240
 96, 96, 97, 242, 241
 97, 97, 98, 243, 242
 98, 98, 99, 244, 243
 99, 99, 100, 245, 244
 100, 100, 101, 246, 245
 101, 101, 102, 247, 246
 102, 102, 103, 248, 247
 103, 103, 104, 249, 248
 104, 104, 105, 250, 249
 105, 105, 106, 251, 250
 106, 106, 107, 252, 251
 107, 107, 108, 253, 252
 108, 108, 109, 254, 253
 109, 109, 110, 255, 254
 110, 110, 111, 256, 255
 111, 111, 112, 257, 256
 112, 112, 113, 258, 257
 113, 113, 114, 259, 258
 114, 114, 115, 260, 259
 115, 115, 116, 261, 260
 116, 116, 117, 262, 261
 117, 117, 118, 263, 262
 118, 118, 119, 264, 263
 119, 119, 120, 265, 264
 120, 120, 121, 266, 265
 121, 121, 122, 267, 266
 122, 122, 123, 268, 267
 123, 123, 124, 269, 268
 124, 124, 125, 270, 269
 125, 125, 126, 271, 270
 126, 126, 127, 272, 271
 127, 127, 128, 273, 272
 128, 128, 129, 274, 273
 129, 129, 130, 275, 274
 130, 130, 131, 276, 275
 131, 131, 132, 277, 276
 132, 132, 133, 278, 277
 133, 133, 134, 279, 278
 134, 134, 135, 280, 279
 135, 135, 136, 281, 280
 136, 136, 137, 282, 281
 137, 137, 138, 283, 282
 138, 138, 139, 284, 283
 139, 139, 140, 285, 284
 140, 140, 141, 286, 285
 141, 141, 142, 287, 286
 142, 142, 143, 288, 287
 143, 143, 144, 289, 288
 144, 144, 145, 290, 289
 145, 146, 147, 292, 291
 146, 147, 148, 293, 292
 147, 148, 149, 294, 293
 148, 149, 150, 295, 294
 149, 150, 151, 296, 295
 150, 151, 152, 297, 296
 151, 152, 153, 298, 297
 152, 153, 154, 299, 298
 153, 154, 155, 300, 299
 154, 155, 156, 301, 300
 155, 156, 157, 302, 301
 156, 157, 158, 303, 302
 157, 158, 159, 304, 303
 158, 159, 160, 305, 304
 159, 160, 161, 306, 305
 160, 161, 162, 307, 306
 161, 162, 163, 308, 307
 162, 163, 164, 309, 308
 163, 164, 165, 310, 309
 164, 165, 166, 311, 310
 165, 166, 167, 312, 311
 166, 167, 168, 313, 312
 167, 168, 169, 314, 313
 168, 169, 170, 315, 314
 169, 170, 171, 316, 315
 170, 171, 172, 317, 316
 171, 172, 173, 318, 317
 172, 173, 174, 319, 318
 173, 174, 175, 320, 319
 174, 175, 176, 321, 320
 175, 176, 177, 322, 321
 176, 177, 178, 323, 322
 177, 178, 179, 324, 323
 178, 179, 180, 325, 324
 179, 180, 181, 326, 325
 180, 181, 182, 327, 326
 181, 182, 183, 328, 327
 182, 183, 184, 329, 328
 183, 184, 185, 330, 329
 184, 185, 186, 331, 330
 185, 186, 187, 332, 331
 186, 187, 188, 333, 332
 187, 188, 189, 334, 333
 188, 189, 190, 335, 334
 189, 190, 191, 336, 335
 190, 191, 192, 337, 336
 191, 192, 193, 338, 337
 192, 193, 194, 339, 338
 193, 194, 195, 340, 339
 194, 195, 196, 341, 340
 195, 196, 197, 342, 341
 196, 197, 198, 343, 342
 197, 198, 199, 344, 343
 198, 199, 200, 345, 344
 199, 200, 201, 346, 345
 200, 201, 202, 347, 346
 201, 202, 203, 348, 347
 202, 203, 204, 349, 348
 203, 204, 205, 350, 349
 204, 205, 206, 351, 350
 205, 206, 207, 352, 351
 206, 207, 208, 353, 352
 207, 208, 209, 354, 353
 208, 209, 210, 355, 354
 209, 210, 211, 356, 355
 210, 211, 212, 357, 356
 211, 212, 213, 358, 357
 212, 213, 214, 359, 358
 213, 214, 215, 360, 359
 214, 215, 216, 361, 360
 215, 216, 217, 362, 361
 216, 217, 218, 363, 362
 217, 218, 219, 364, 363
 218, 219, 220, 365, 364
 219, 220, 221, 366, 365
 220, 221, 222, 367, 366
 221, 222, 223, 368, 367
 222, 223, 224, 369, 368
 223, 224, 225, 370, 369
 224, 225, 226, 371, 370
 225, 226, 227, 372, 371
 226, 227, 228, 373, 372
 227, 228, 229, 374, 373
 228, 229, 230, 375, 374
 229, 230, 231, 376, 375
 230, 231, 232, 377, 376
 231, 232, 233, 378, 377
 232, 233, 234, 379, 378
 233, 234, 235, 380, 379
 234, 235, 236, 381, 380
 235, 236, 237, 382, 381
 236, 237, 238, 383, 382
 237, 238, 239, 384, 383
 238, 239, 240, 385, 384
 239, 240, 241, 386, 385
 240, 241, 242, 387, 386
 241, 242, 243, 388, 387
 242, 243, 244, 389, 388
 243, 244, 245, 390, 389
 244, 245, 246, 391, 390
 245, 246, 247, 392, 391
 246, 247, 248, 393, 392
 247, 248, 249, 394, 393
 248, 249, 250, 395, 394
 249, 250, 251, 396, 395
 250, 251, 252, 397, 396
 251, 252, 253, 398, 397
 252, 253, 254, 399, 398
 253, 254, 255, 400, 399
 254, 255, 256, 401, 400
 255, 256, 257, 402, 401
 256, 257, 258, 403, 402
 257, 258, 259, 404, 403
 258, 259, 260, 405, 404
 259, 260, 261, 406, 405
 260, 261, 262, 407, 406
 261, 262, 263, 408, 407
 262, 263, 264, 409, 408
 263, 264, 265, 410, 409
 264, 265, 266, 411, 410
 265, 266, 267, 412, 411
 266, 267, 268, 413, 412
 267, 268, 269, 414, 413
 268, 269, 270, 415, 414
 269, 270, 271, 416, 415
 270, 271, 272, 417, 416
 271, 272, 273, 418, 417
 272, 273, 274, 419, 418
 273, 274, 275, 420, 419
 274, 275, 276, 421, 420
 275, 276, 277, 422, 421
 276, 277, 278, 423, 422
 277, 278, 279, 424, 423
 278, 279, 280, 425, 424
 279, 280, 281, 426, 425
 280, 281, 282, 427, 426
 281, 282, 283, 428, 427
 282, 283, 284, 429, 428
 283, 284, 285, 430, 429
 284, 285, 286, 431, 430
 285, 286, 287, 432, 431
 286, 287, 288, 433, 432
 287, 288, 289, 434, 433
 288, 289, 290, 435, 434
 289, 291, 292, 437, 436
 290, 292, 293, 438, 437
 291, 293, 294, 439, 438
 292, 294, 295, 440, 439
 293, 295, 296, 441, 440
 294, 296, 297, 442, 441
 295, 297, 298, 443, 442
 296, 298, 299, 444, 443
 297, 299, 300, 445, 444
 298, 300, 301, 446, 445
 299, 301, 302, 447, 446
 300, 302, 303, 448, 447
 301, 303, 304, 449, 448
 302, 304, 305, 450, 449
 303, 305, 306, 451, 450
 304, 306, 307, 452, 451
 305, 307, 308, 453, 452
 306, 308, 309, 454, 453
 307, 309, 310, 455, 454
 308, 310, 311, 456, 455
 309, 311, 312, 457, 456
 310, 312, 313, 458, 457
 311, 313, 314, 459, 458
 312, 314, 315, 460, 459
 313, 315, 316, 461, 460
 314, 316, 317, 462, 461
 315, 317, 318, 463, 462
 316, 318, 319, 464, 463
 317, 319, 320, 465, 464
 318, 320, 321, 466, 465
 319, 321, 322, 467, 466
 320, 322, 323, 468, 467
 321, 323, 324, 469, 468
 322, 324, 325, 470, 469
 323, 325, 326, 471, 470
 324, 326, 327, 472, 471
 325, 327, 328, 473, 472
 326, 328, 329, 474, 473
 327, 329, 330, 475, 474
 328, 330, 331, 476, 475
 329, 331, 332, 477, 476
 330, 332, 333, 478, 477
 331, 333, 334, 479, 478
 332, 334, 335, 480, 479
 333, 335, 336, 481, 480
 334, 336, 337, 482, 481
 335, 337, 338, 483, 482
 336, 338, 339, 484, 483
 337, 339, 340, 485, 484
 338, 340, 341, 486, 485
 339, 341, 342, 487, 486
 340, 342, 343, 488, 487
 341, 343, 344, 489, 488
 342, 344, 345, 490, 489
 343, 345, 346, 491, 490
 344, 346, 347, 492, 491
 345, 347, 348, 493, 492
 346, 348, 349, 494, 493
 347, 349, 350, 495, 494
 348, 350, 351, 496, 495
 349, 351, 352, 497, 496
 350, 352, 353, 498, 497
 351, 353, 354, 499, 498
 352, 354, 355, 500, 499
 353, 355, 356, 501, 500
 354, 356, 357, 502, 501
 355, 357, 358, 503, 502
 356, 358, 359, 504, 503
 357, 359, 360, 505, 504
 358, 360, 361, 506, 505
 359, 361, 362, 507, 506
 360, 362, 363, 508, 507
 361, 363, 364, 509, 508
 362, 364, 365, 510, 509
 363, 365, 366, 511, 510
 364, 366, 367, 512, 511
 365, 367, 368, 513, 512
 366, 368, 369, 514, 513
 367, 369, 370, 515, 514
 368, 370, 371, 516, 515
 369, 371, 372, 517, 516
 370, 372, 373, 518, 517
 371, 373, 374, 519, 518
 372, 374, 375, 520, 519
 373, 375, 376, 521, 520
 374, 376, 377, 522, 521
 375, 377, 378, 523, 522
 376, 378, 379, 524, 523
 377, 379, 380, 525, 524
 378, 380, 381, 526, 525
 379, 381, 382, 527, 526
 380, 382, 383, 528, 527
 381, 383, 384, 529, 528
 382, 384, 385, 530, 529
 383, 385, 386, 531, 530
 384, 386, 387, 532, 531
 385, 387, 388, 533, 532
 386, 388, 389, 534, 533
 387, 389, 390, 535, 534
 388, 390, 391, 536, 535
 389, 391, 392, 537, 536
 390, 392, 393, 538, 537
 391, 393, 394, 539, 538
 392, 394, 395, 540, 539
 393, 395, 396, 541, 540
 394, 396, 397, 542, 541
 395, 397, 398, 543, 542
 396, 398, 399, 544, 543
 397, 399, 400, 545, 544
 398, 400, 401, 546, 545
 399, 401, 402, 547, 546
 400, 402, 403, 548, 547
 401, 403, 404, 549, 548
 402, 404, 405, 550, 549
 403, 405, 406, 551, 550
 404, 406, 407, 552, 551
 405, 407, 408, 553, 552
 406, 408, 409, 554, 553
 407, 409, 410, 555, 554
 408, 410, 411, 556, 555
 409, 411, 412, 557, 556
 410, 412, 413, 558, 557
 411, 413, 414, 559, 558
 412, 414, 415, 560, 559
 413, 415, 416, 561, 560
 414, 416, 417, 562, 561
 415, 417, 418, 563, 562
 416, 418, 419, 564, 563
 417, 419, 420, 565, 564
 418, 420, 421, 566, 565
 419, 421, 422, 567, 566
 420, 422, 423, 568, 567
 421, 423, 424, 569, 568
 422, 424, 425, 570, 569
 423, 425, 426, 571, 570
 424, 426, 427, 572, 571
 425, 427, 428, 573, 572
 426, 428, 429, 574, 573
 427, 429, 430, 575, 574
 428, 430, 431, 576, 575
 429, 431, 432, 577, 576
 430, 432, 433, 578, 577
 431, 433, 434, 579, 578
 432, 434, 435, 580, 579
 433, 436, 437, 582, 581
 434, 437, 438, 583, 582
 435, 438, 439, 584, 583
 436, 439, 440, 585, 584
 437, 440, 441, 586, 585
 438, 441, 442, 587, 586
 439, 442, 443, 588, 587
 440, 443, 444, 589, 588
 441, 444, 445, 590, 589
 442, 445, 446, 591, 590
 443, 446, 447, 592, 591
 444, 447, 448, 593, 592
 445, 448, 449, 594, 593
 446, 449, 450, 595, 594
 447, 450, 451, 596, 595
 448, 451, 452, 597, 596
 449, 452, 453, 598, 597
 450, 453, 454, 599, 598
 451, 454, 455, 600, 599
 452, 455, 456, 601, 600
 453, 456, 457, 602, 601
 454, 457, 458, 603, 602
 455, 458, 459, 604, 603
 456, 459, 460, 605, 604
 457, 460, 461, 606, 605
 458, 461, 462, 607, 606
 459, 462, 463, 608, 607
 460, 463, 464, 609, 608
 461, 464, 465, 610, 609
 462, 465, 466, 611, 610
 463, 466, 467, 612, 611
 464, 467, 468, 613, 612
 465, 468, 469, 614, 613
 466, 469, 470, 615, 614
 467, 470, 471, 616, 615
 468, 471, 472, 617, 616
 469, 472, 473, 618, 617
 470, 473, 474, 619, 618
 471, 474, 475, 620, 619
 472, 475, 476, 621, 620
 473, 476, 477, 622, 621
 474, 477, 478, 623, 622
 475, 478, 479, 624, 623
 476, 479, 480, 625, 624
 477, 480, 481, 626, 625
 478, 481, 482, 627, 626
 479, 482, 483, 628, 627
 480, 483, 484, 629, 628
 481, 484, 485, 630, 629
 482, 485, 486, 631, 630
 483, 486, 487, 632, 631
 484, 487, 488, 633, 632
 485, 488, 489, 634, 633
 486, 489, 490, 635, 634
 487, 490, 491, 636, 635
 488, 491, 492, 637, 636
 489, 492, 493, 638, 637
 490, 493, 494, 639, 638
 491, 494, 495, 640, 639
 492, 495, 496, 641, 640
 493, 496, 497, 642, 641
 494, 497, 498, 643, 642
 495, 498, 499, 644, 643
 496, 499, 500, 645, 644
 497, 500, 501, 646, 645
 498, 501, 502, 647, 646
 499, 502, 503, 648, 647
 500, 503, 504, 649, 648
 501, 504, 505, 650, 649
 502, 505, 506, 651, 650
 503, 506, 507, 652, 651
 504, 507, 508, 653, 652
 505, 508, 509, 654, 653
 506, 509, 510, 655, 654
 507, 510, 511, 656, 655
 508, 511, 512, 657, 656
 509, 512, 513, 658, 657
 510, 513, 514, 659, 658
 511, 514, 515, 660, 659
 512, 515, 516, 661, 660
 513, 516, 517, 662, 661
 514, 517, 518, 663, 662
 515, 518, 519, 664, 663
 516, 519, 520, 665, 664
 517, 520, 521, 666, 665
 518, 521, 522, 667, 666
 519, 522, 523, 668, 667
 520, 523, 524, 669, 668
 521, 524, 525, 670, 669
 522, 525, 526, 671, 670
 523, 526, 527, 672, 671
 524, 527, 528, 673, 672
 525, 528, 529, 674, 673
 526, 529, 530, 675, 674
 527, 530, 531, 676, 675
 528, 531, 532, 677, 676
 529, 532, 533, 678, 677
 530, 533, 534, 679, 678
 531, 534, 535, 680, 679
 532, 535, 536, 681, 680
 533, 536, 537, 682, 681
 534, 537, 538, 683, 682
 535, 538, 539, 684, 683
 536, 539, 540, 685, 684
 537, 540, 541, 686, 685
 538, 541, 542, 687, 686
 539, 542, 543, 688, 687
 540, 543, 544, 689, 688
 541, 544, 545, 690, 689
 542, 545, 546, 691, 690
 543, 546, 547, 692, 691
 544, 547, 548, 693, 692
 545, 548, 549, 694, 693
 546, 549, 550, 695, 694
 547, 550, 551, 696, 695
 548, 551, 552, 697, 696
 549, 552, 553, 698, 697
 550, 553, 554, 699, 698
 551, 554, 555, 700, 699
 552, 555, 556, 701, 700
 553, 556, 557, 702, 701
 554, 557, 558, 703, 702
 555, 558, 559, 704, 703
 556, 559, 560, 705, 704
 557, 560, 561, 706, 705
 558, 561, 562, 707, 706
 559, 562, 563, 708, 707
 560, 563, 564, 709, 708
 561, 564, 565, 710, 709
 562, 565, 566, 711, 710
 563, 566, 567, 712, 711
 564, 567, 568, 713, 712
 565, 568, 569, 714, 713
 566, 569, 570, 715, 714
 567, 570, 571, 716, 715
 568, 571, 572, 717, 716
 569, 572, 573, 718, 717
 570, 573, 574, 719, 718
 571, 574, 575, 720, 719
 572, 575, 576, 721, 720
 573, 576, 577, 722, 721
 574, 577, 578, 723, 722
 575, 578, 579, 724, 723
 576, 579, 580, 725, 724
 577, 581, 582, 727, 726
 578, 582, 583, 728, 727
 579, 583, 584, 729, 728
 580, 584, 585, 730, 729
 581, 585, 586, 731, 730
 582, 586, 587, 732, 731
 583, 587, 588, 733, 732
 584, 588, 589, 734, 733
 585, 589, 590, 735, 734
 586, 590, 591, 736, 735
 587, 591, 592, 737, 736
 588, 592, 593, 738, 737
 589, 593, 594, 739, 738
 590, 594, 595, 740, 739
 591, 595, 596, 741, 740
 592, 596, 597, 742, 741
 593, 597, 598, 743, 742
 594, 598, 599, 744, 743
 595, 599, 600, 745, 744
 596, 600, 601, 746, 745
 597, 601, 602, 747, 746
 598, 602, 603, 748, 747
 599, 603, 604, 749, 748
 600, 604, 605, 750, 749
 601, 605, 606, 751, 750
 602, 606, 607, 752, 751
 603, 607, 608, 753, 752
 604, 608, 609, 754, 753
 605, 609, 610, 755, 754
 606, 610, 611, 756, 755
 607, 611, 612, 757, 756
 608, 612, 613, 758, 757
 609, 613, 614, 759, 758
 610, 614, 615, 760, 759
 611, 615, 616, 761, 760
 612, 616, 617, 762, 761
 613, 617, 618, 763, 762
 614, 618, 619, 764, 763
 615, 619, 620, 765, 764
 616, 620, 621, 766, 765
 617, 621, 622, 767, 766
 618, 622, 623, 768, 767
 619, 623, 624, 769, 768
 620, 624, 625, 770, 769
 621, 625, 626, 771, 770
 622, 626, 627, 772, 771
 623, 627, 628, 773, 772
 624, 628, 629, 774, 773
 625, 629, 630, 775, 774
 626, 630, 631, 776, 775
 627, 631, 632, 777, 776
 628, 632, 633, 778, 777
 629, 633, 634, 779, 778
 630, 634, 635, 780, 779
 631, 635, 636, 781, 780
 632, 636, 637, 782, 781
 633, 637, 638, 783, 782
 634, 638, 639, 784, 783
 635, 639, 640, 785, 784
 636, 640, 641, 786, 785
 637, 641, 642, 787, 786
 638, 642, 643, 788, 787
 639, 643, 644, 789, 788
 640, 644, 645, 790, 789
 641, 645, 646, 791, 790
 642, 646, 647, 792, 791
 643, 647, 648, 793, 792
 644, 648, 649, 794, 793
 645, 649, 650, 795, 794
 646, 650, 651, 796, 795
 647, 651, 652, 797, 796
 648, 652, 653, 798, 797
 649, 653, 654, 799, 798
 650, 654, 655, 800, 799
 651, 655, 656, 801, 800
 652, 656, 657, 802, 801
 653, 657, 658, 803, 802
 654, 658, 659, 804, 803
 655, 659, 660, 805, 804
 656, 660, 661, 806, 805
 657, 661, 662, 807, 806
 658, 662, 663, 808, 807
 659, 663, 664, 809, 808
 660, 664, 665, 810, 809
 661, 665, 666, 811, 810
 662, 666, 667, 812, 811
 663, 667, 668, 813, 812
 664, 668, 669, 814, 813
 665, 669, 670, 815, 814
 666, 670, 671, 816, 815
 667, 671, 672, 817, 816
 668, 672, 673, 818, 817
 669, 673, 674, 819, 818
 670, 674, 675, 820, 819
 671, 675, 676, 821, 820
 672, 676, 677, 822, 821
 673, 677, 678, 823, 822
 674, 678, 679, 824, 823
 675, 679, 680, 825, 824
 676, 680, 681, 826, 825
 677, 681, 682, 827, 826
 678, 682, 683, 828, 827
 679, 683, 684, 829, 828
 680, 684, 685, 830, 829
 681, 685, 686, 831, 830
 682, 686, 687, 832, 831
 683, 687, 688, 833, 832
 684, 688, 689, 834, 833
 685, 689, 690, 835, 834
 686, 690, 691, 836, 835
 687, 691, 692, 837, 836
 688, 692, 693, 838, 837
 689, 693, 694, 839, 838
 690, 694, 695, 840, 839
 691, 695, 696, 841, 840
 692, 696, 697, 842, 841
 693, 697, 698, 843, 842
 694, 698, 699, 844, 843
 695, 699, 700, 845, 844
 696, 700, 701, 846, 845
 697, 701, 702, 847, 846
 698, 702, 703, 848, 847
 699, 703, 704, 849, 848
 700, 704, 705, 850, 849
 701, 705, 706, 851, 850
 702, 706, 707, 852, 851
 703, 707, 708, 853, 852
 704, 708, 709, 854, 853
 705, 709, 710, 855, 854
 706, 710, 711, 856, 855
 707, 711, 712, 857, 856
 708, 712, 713, 858, 857
 709, 713, 714, 859, 858
 710, 714, 715, 860, 859
 711, 715, 716, 861, 860
 712, 716, 717, 862, 861
 713, 717, 718, 863, 862
 714, 718, 719, 864, 863
 715, 719, 720, 865, 864
 716, 720, 721, 866, 865
 717, 721, 722, 867, 866
 718, 722, 723, 868, 867
 719, 723, 724, 869, 868
 720, 724, 725, 870, 869
 721, 726, 727, 872, 871
 722, 727, 728, 873, 872
 723, 728, 729, 874, 873
 724, 729, 730, 875, 874
 725, 730, 731, 876, 875
 726, 731, 732, 877, 876
 727, 732, 733, 878, 877
 728, 733, 734, 879, 878
 729, 734, 735, 880, 879
 730, 735, 736, 881, 880
 731, 736, 737, 882, 881
 732, 737, 738, 883, 882
 733, 738, 739, 884, 883
 734, 739, 740, 885, 884
 735, 740, 741, 886, 885
 736, 741, 742, 887, 886
 737, 742, 743, 888, 887
 738, 743, 744, 889, 888
 739, 744, 745, 890, 889
 740, 745, 746, 891, 890
 741, 746, 747, 892, 891
 742, 747, 748, 893, 892
 743, 748, 749, 894, 893
 744, 749, 750, 895, 894
 745, 750, 751, 896, 895
 746, 751, 752, 897, 896
 747, 752, 753, 898, 897
 748, 753, 754, 899, 898
 749, 754, 755, 900, 899
 750, 755, 756, 901, 900
 751, 756, 757, 902, 901
 752, 757, 758, 903, 902
 753, 758, 759, 904, 903
 754, 759, 760, 905, 904
 755, 760, 761, 906, 905
 756, 761, 762, 907, 906
 757, 762, 763, 908, 907
 758, 763, 764, 909, 908
 759, 764, 765, 910, 909
 760, 765, 766, 911, 910
 761, 766, 767, 912, 911
 762, 767, 768, 913, 912
 763, 768, 769, 914, 913
 764, 769, 770, 915, 914
 765, 770, 771, 916, 915
 766, 771, 772, 917, 916
 767, 772, 773, 918, 917
 768, 773, 774, 919, 918
 769, 774, 775, 920, 919
 770, 775, 776, 921, 920
 771, 776, 777, 922, 921
 772, 777, 778, 923, 922
 773, 778, 779, 924, 923
 774, 779, 780, 925, 924
 775, 780, 781, 926, 925
 776, 781, 782, 927, 926
 777, 782, 783, 928, 927
 778, 783, 784, 929, 928
 779, 784, 785, 930, 929
 780, 785, 786, 931, 930
 781, 786, 787, 932, 931
 782, 787, 788, 933, 932
 783, 788, 789, 934, 933
 784, 789, 790, 935, 934
 785, 790, 791, 936, 935
 786, 791, 792, 937, 936
 787, 792, 793, 938, 937
 788, 793, 794, 939, 938
 789, 794, 795, 940, 939
 790, 795, 796, 941, 940
 791, 796, 797, 942, 941
 792, 797, 798, 943, 942
 793, 798, 799, 944, 943
 794, 799, 800, 945, 944
 795, 800, 801, 946, 945
 796, 801, 802, 947, 946
 797, 802, 803, 948, 947
 798, 803, 804, 949, 948
 799, 804, 805, 950, 949
 800, 805, 806, 951, 950
 801, 806, 807, 952, 951
 802, 807, 808, 953, 952
 803, 808, 809, 954, 953
 804, 809, 810, 955, 954
 805, 810, 811, 956, 955
 806, 811, 812, 957, 956
 807, 812, 813, 958, 957
 808, 813, 814, 959, 958
 809, 814, 815, 960, 959
 810, 815, 816, 961, 960
 811, 816, 817, 962, 961
 812, 817, 818, 963, 962
 813, 818, 819, 964, 963
 814, 819, 820, 965, 964
 815, 820, 821, 966, 965
 816, 821, 822, 967, 966
 817, 822, 823, 968, 967
 818, 823, 824, 969, 968
 819, 824, 825, 970, 969
 820, 825, 826, 971, 970
 821, 826, 827, 972, 971
 822, 827, 828, 973, 972
 823, 828, 829, 974, 973
 824, 829, 830, 975, 974
 825, 830, 831, 976, 975
 826, 831, 832, 977, 976
 827, 832, 833, 978, 977
 828, 833, 834, 979, 978
 829, 834, 835, 980, 979
 830, 835, 836, 981, 980
 831, 836, 837, 982, 981
 832, 837, 838, 983, 982
 833, 838, 839, 984, 983
 834, 839, 840, 985, 984
 835, 840, 841, 986, 985
 836, 841, 842, 987, 986
 837, 842, 843, 988, 987
 838, 843, 844, 989, 988
 839, 844, 845, 990, 989
 840, 845, 846, 991, 990
 841, 846, 847, 992, 991
 842, 847, 848, 993, 992
 843, 848, 849, 994, 993
 844, 849, 850, 995, 994
 845, 850, 851, 996, 995
 846, 851, 852, 997, 996
 847, 852, 853, 998, 997
 848, 853, 854, 999, 998
 849, 854, 855, 1000, 999
 850, 855, 856, 1001, 1000
 851, 856, 857, 1002, 1001
 852, 857, 858, 1003, 1002
 853, 858, 859, 1004, 1003
 854, 859, 860, 1005, 1004
 855, 860, 861, 1006, 1005
 856, 861, 862, 1007, 1006
 857, 862, 863, 1008, 1007
 858, 863, 864, 1009, 1008
 859, 864, 865, 1010, 1009
 860, 865, 866, 1011, 1010
 861, 866, 867, 1012, 1011
 862, 867, 868, 1013, 1012
 863, 868, 869, 1014, 1013
 864, 869, 870, 1015, 1014
 865, 871, 872, 1017, 1016
 866, 872, 873, 1018, 1017
 867, 873, 874, 1019, 1018
 868, 874, 875, 1020, 1019
 869, 875, 876, 1021, 1020
 870, 876, 877, 1022, 1021
 871, 877, 878, 1023, 1022
 872, 878, 879, 1024, 1023
 873, 879, 880, 1025, 1024
 874, 880, 881, 1026, 1025
 875, 881, 882, 1027, 1026
 876, 882, 883, 1028, 1027
 877, 883, 884, 1029, 1028
 878, 884, 885, 1030, 1029
 879, 885, 886, 1031, 1030
 880, 886, 887, 1032, 1031
 881, 887, 888, 1033, 1032
 882, 888, 889, 1034, 1033
 883, 889, 890, 1035, 1034
 884, 890, 891, 1036, 1035
 885, 891, 892, 1037, 1036
 886, 892, 893, 1038, 1037
 887, 893, 894, 1039, 1038
 888, 894, 895, 1040, 1039
 889, 895, 896, 1041, 1040
 890, 896, 897, 1042, 1041
 891, 897, 898, 1043, 1042
 892, 898, 899, 1044, 1043
 893, 899, 900, 1045, 1044
 894, 900, 901, 1046, 1045
 895, 901, 902, 1047, 1046
 896, 902, 903, 1048, 1047
 897, 903, 904, 1049, 1048
 898, 904, 905, 1050, 1049
 899, 905, 906, 1051, 1050
 900, 906, 907, 1052, 1051
 901, 907, 908, 1053, 1052
 902, 908, 909, 1054, 1053
 903, 909, 910, 1055, 1054
 904, 910, 911, 1056, 1055
 905, 911, 912, 1057, 1056
 906, 912, 913, 1058, 1057
 907, 913, 914, 1059, 1058
 908, 914, 915, 1060, 1059
 909, 915, 916, 1061, 1060
 910, 916, 917, 1062, 1061
 911, 917, 918, 1063, 1062
 912, 918, 919, 1064, 1063
 913, 919, 920, 1065, 1064
 914, 920, 921, 1066, 1065
 915, 921, 922, 1067, 1066
 916, 922, 923, 1068, 1067
 917, 923, 924, 1069, 1068
 918, 924, 925, 1070, 1069
 919, 925, 926, 1071, 1070
 920, 926, 927, 1072, 1071
 921, 927, 928, 1073, 1072
 922, 928, 929, 1074, 1073
 923, 929, 930, 1075, 1074
 924, 930, 931, 1076, 1075
 925, 931, 932, 1077, 1076
 926, 932, 933, 1078, 1077
 927, 933, 934, 1079, 1078
 928, 934, 935, 1080, 1079
 929, 935, 936, 1081, 1080
 930, 936, 937, 1082, 1081
 931, 937, 938, 1083, 1082
 932, 938, 939, 1084, 1083
 933, 939, 940, 1085, 1084
 934, 940, 941, 1086, 1085
 935, 941, 942, 1087, 1086
 936, 942, 943, 1088, 1087
 937, 943, 944, 1089, 1088
 938, 944, 945, 1090, 1089
 939, 945, 946, 1091, 1090
 940, 946, 947, 1092, 1091
 941, 947, 948, 1093, 1092
 942, 948, 949, 1094, 1093
 943, 949, 950, 1095, 1094
 944, 950, 951, 1096, 1095
 945, 951, 952, 1097, 1096
 946, 952, 953, 1098, 1097
 947, 953, 954, 1099, 1098
 948, 954, 955, 1100, 1099
 949, 955, 956, 1101, 1100
 950, 956, 957, 1102, 1101
 951, 957, 958, 1103, 1102
 952, 958, 959, 1104, 1103
 953, 959, 960, 1105, 1104
 954, 960, 961, 1106, 1105
 955, 961, 962, 1107, 1106
 956, 962, 963, 1108, 1107
 957, 963, 964, 1109, 1108
 958, 964, 965, 1110, 1109
 959, 965, 966, 1111, 1110
 960, 966, 967, 1112, 1111
 961, 967, 968, 1113, 1112
 962, 968, 969, 1114, 1113
 963, 969, 970, 1115, 1114
 964, 970, 971, 1116, 1115
 965, 971, 972, 1117, 1116
 966, 972, 973, 1118, 1117
 967, 973, 974, 1119, 1118
 968, 974, 975, 1120, 1119
 969, 975, 976, 1121, 1120
 970, 976, 977, 1122, 1121
 971, 977, 978, 1123, 1122
 972, 978, 979, 1124, 1123
 973, 979, 980, 1125, 1124
 974, 980, 981, 1126, 1125
 975, 981, 982, 1127, 1126
 976, 982, 983, 1128, 1127
 977, 983, 984, 1129, 1128
 978, 984, 985, 1130, 1129
 979, 985, 986, 1131, 1130
 980, 986, 987, 1132, 1131
 981, 987, 988, 1133, 1132
 982, 988, 989, 1134, 1133
 983, 989, 990, 1135, 1134
 984, 990, 991, 1136, 1135
 985, 991, 992, 1137, 1136
 986, 992, 993, 1138, 1137
 987, 993, 994, 1139, 1138
 988, 994, 995, 1140, 1139
 989, 995, 996, 1141, 1140
 990, 996, 997, 1142, 1141
 991, 997, 998, 1143, 1142
 992, 998, 999, 1144, 1143
 993, 999, 1000, 1145, 1144
 994, 1000, 1001, 1146, 1145
 995, 1001, 1002, 1147, 1146
 996, 1002, 1003, 1148, 1147
 997, 1003, 1004, 1149, 1148
 998, 1004, 1005, 1150, 1149
 999, 1005, 1006, 1151, 1150
 1000, 1006, 1007, 1152, 1151
 1001, 1007, 1008, 1153, 1152
 1002, 1008, 1009, 1154, 1153
 1003, 1009, 1010, 1155, 1154
 1004, 1010, 1011, 1156, 1155
 1005, 1011, 1012, 1157, 1156
 1006, 1012, 1013, 1158, 1157
 1007, 1013, 1014, 1159, 1158
 1008, 1014, 1015, 1160, 1159
 1009, 1016, 1017, 1162, 1161
 1010, 1017, 1018, 1163, 1162
 1011, 1018, 1019, 1164, 1163
 1012, 1019, 1020, 1165, 1164
 1013, 1020, 1021, 1166, 1165
 1014, 1021, 1022, 1167, 1166
 1015, 1022, 1023, 1168, 1167
 1016, 1023, 1024, 1169, 1168
 1017, 1024, 1025, 1170, 1169
 1018, 1025, 1026, 1171, 1170
 1019, 1026, 1027, 1172, 1171
 1020, 1027, 1028, 1173, 1172
 1021, 1028, 1029, 1174, 1173
 1022, 1029, 1030, 1175, 1174
 1023, 1030, 1031, 1176, 1175
 1024, 1031, 1032, 1177, 1176
 1025, 1032, 1033, 1178, 1177
 1026, 1033, 1034, 1179, 1178
 1027, 1034, 1035, 1180, 1179
 1028, 1035, 1036, 1181, 1180
 1029, 1036, 1037, 1182, 1181
 1030, 1037, 1038, 1183, 1182
 1031, 1038, 1039, 1184, 1183
 1032, 1039, 1040, 1185, 1184
 1033, 1040, 1041, 1186, 1185
 1034, 1041, 1042, 1187, 1186
 1035, 1042, 1043, 1188, 1187
 1036, 1043, 1044, 1189, 1188
 1037, 1044, 1045, 1190, 1189
 1038, 1045, 1046, 1191, 1190
 1039, 1046, 1047, 1192, 1191
 1040, 1047, 1048, 1193, 1192
 1041, 1048, 1049, 1194, 1193
 1042, 1049, 1050, 1195, 1194
 1043, 1050, 1051, 1196, 1195
 1044, 1051, 1052, 1197, 1196
 1045, 1052, 1053, 1198, 1197
 1046, 1053, 1054, 1199, 1198
 1047, 1054, 1055, 1200, 1199
 1048, 1055, 1056, 1201, 1200
 1049, 1056, 1057, 1202, 1201
 1050, 1057, 1058, 1203, 1202
 1051, 1058, 1059, 1204, 1203
 1052, 1059, 1060, 1205, 1204
 1053, 1060, 1061, 1206, 1205
 1054, 1061, 1062, 1207, 1206
 1055, 1062, 1063, 1208, 1207
 1056, 1063, 1064, 1209, 1208
 1057, 1064, 1065, 1210, 1209
 1058, 1065, 1066, 1211, 1210
 1059, 1066, 1067, 1212, 1211
 1060, 1067, 1068, 1213, 1212
 1061, 1068, 1069, 1214, 1213
 1062, 1069, 1070, 1215, 1214
 1063, 1070, 1071, 1216, 1215
 1064, 1071, 1072, 1217, 1216
 1065, 1072, 1073, 1218, 1217
 1066, 1073, 1074, 1219, 1218
 1067, 1074, 1075, 1220, 1219
 1068, 1075, 1076, 1221, 1220
 1069, 1076, 1077, 1222, 1221
 1070, 1077, 1078, 1223, 1222
 1071, 1078, 1079, 1224, 1223
 1072, 1079, 1080, 1225, 1224
 1073, 1080, 1081, 1226, 1225
 1074, 1081, 1082, 1227, 1226
 1075, 1082, 1083, 1228, 1227
 1076, 1083, 1084, 1229, 1228
 1077, 1084, 1085, 1230, 1229
 1078, 1085, 1086, 1231, 1230
 1079, 1086, 1087, 1232, 1231
 1080, 1087, 1088, 1233, 1232
 1081, 1088, 1089, 1234, 1233
 1082, 1089, 1090, 1235, 1234
 1083, 1090, 1091, 1236, 1235
 1084, 1091, 1092, 1237, 1236
 1085, 1092, 1093, 1238, 1237
 1086, 1093, 1094, 1239, 1238
 1087, 1094, 1095, 1240, 1239
 1088, 1095, 1096, 1241, 1240
 1089, 1096, 1097, 1242, 1241
 1090, 1097, 1098, 1243, 1242
 1091, 1098, 1099, 1244, 1243
 1092, 1099, 1100, 1245, 1244
 1093, 1100, 1101, 1246, 1245
 1094, 1101, 1102, 1247, 1246
 1095, 1102, 1103, 1248, 1247
 1096, 1103, 1104, 1249, 1248
 1097, 1104, 1105, 1250, 1249
 1098, 1105, 1106, 1251, 1250
 1099, 1106, 1107, 1252, 1251
 1100, 1107, 1108, 1253, 1252
 1101, 1108, 1109, 1254, 1253
 1102, 1109, 1110, 1255, 1254
 1103, 1110, 1111, 1256, 1255
 1104, 1111, 1112, 1257, 1256
 1105, 1112, 1113, 1258, 1257
 1106, 1113, 1114, 1259, 1258
 1107, 1114, 1115, 1260, 1259
 1108, 1115, 1116, 1261, 1260
 1109, 1116, 1117, 1262, 1261
 1110, 1117, 1118, 1263, 1262
 1111, 1118, 1119, 1264, 1263
 1112, 1119, 1120, 1265, 1264
 1113, 1120, 1121, 1266, 1265
 1114, 1121, 1122, 1267, 1266
 1115, 1122, 1123, 1268, 1267
 1116, 1123, 1124, 1269, 1268
 1117, 1124, 1125, 1270, 1269
 1118, 1125, 1126, 1271, 1270
 1119, 1126, 1127, 1272, 1271
 1120, 1127, 1128, 1273, 1272
 1121, 1128, 1129, 1274, 1273
 1122, 1129, 1130, 1275, 1274
 1123, 1130, 1131, 1276, 1275
 1124, 1131, 1132, 1277, 1276
 1125, 1132, 1133, 1278, 1277
 1126, 1133, 1134, 1279, 1278
 1127, 1134, 1135, 1280, 1279
 1128, 1135, 1136, 1281, 1280
 1129, 1136, 1137, 1282, 1281
 1130, 1137, 1138, 1283, 1282
 1131, 1138, 1139, 1284, 1283
 1132, 1139, 1140, 1285, 1284
 1133, 1140, 1141, 1286, 1285
 1134, 1141, 1142, 1287, 1286
 1135, 1142, 1143, 1288, 1287
 1136, 1143, 1144, 1289, 1288
 1137, 1144, 1145, 1290, 1289
 1138, 1145, 1146, 1291, 1290
 1139, 1146, 1147, 1292, 1291
 1140, 1147, 1148, 1293, 1292
 1141, 1148, 1149, 1294, 1293
 1142, 1149, 1150, 1295, 1294
 1143, 1150, 1151, 1296, 1295
 1144, 1151, 1152, 1297, 1296
 1145, 1152, 1153, 1298, 1297
 1146, 1153, 1154, 1299, 1298
 1147, 1154, 1155, 1300, 1299
 1148, 1155, 1156, 1301, 1300
 1149, 1156, 1157, 1302, 1301
 1150, 1157, 1158, 1303, 1302
 1151, 1158, 1159, 1304, 1303
 1152, 1159, 1160, 1305, 1304
 1153, 1161, 1162, 1307, 1306
 1154, 1162, 1163, 1308, 1307
 1155, 1163, 1164, 1309, 1308
 1156, 1164, 1165, 1310, 1309
 1157, 1165, 1166, 1311, 1310
 1158, 1166, 1167, 1312, 1311
 1159, 1167, 1168, 1313, 1312
 1160, 1168, 1169, 1314, 1313
 1161, 1169, 1170, 1315, 1314
 1162, 1170, 1171, 1316, 1315
 1163, 1171, 1172, 1317, 1316
 1164, 1172, 1173, 1318, 1317
 1165, 1173, 1174, 1319, 1318
 1166, 1174, 1175, 1320, 1319
 1167, 1175, 1176, 1321, 1320
 1168, 1176, 1177, 1322, 1321
 1169, 1177, 1178, 1323, 1322
 1170, 1178, 1179, 1324, 1323
 1171, 1179, 1180, 1325, 1324
 1172, 1180, 1181, 1326, 1325
 1173, 1181, 1182, 1327, 1326
 1174, 1182, 1183, 1328, 1327
 1175, 1183, 1184, 1329, 1328
 1176, 1184, 1185, 1330, 1329
 1177, 1185, 1186, 1331, 1330
 1178, 1186, 1187, 1332, 1331
 1179, 1187, 1188, 1333, 1332
 1180, 1188, 1189, 1334, 1333
 1181, 1189, 1190, 1335, 1334
 1182, 1190, 1191, 1336, 1335
 1183, 1191, 1192, 1337, 1336
 1184, 1192, 1193, 1338, 1337
 1185, 1193, 1194, 1339, 1338
 1186, 1194, 1195, 1340, 1339
 1187, 1195, 1196, 1341, 1340
 1188, 1196, 1197, 1342, 1341
 1189, 1197, 1198, 1343, 1342
 1190, 1198, 1199, 1344, 1343
 1191, 1199, 1200, 1345, 1344
 1192, 1200, 1201, 1346, 1345
 1193, 1201, 1202, 1347, 1346
 1194, 1202, 1203, 1348, 1347
 1195, 1203, 1204, 1349, 1348
 1196, 1204, 1205, 1350, 1349
 1197, 1205, 1206, 1351, 1350
 1198, 1206, 1207, 1352, 1351
 1199, 1207, 1208, 1353, 1352
 1200, 1208, 1209, 1354, 1353
 1201, 1209, 1210, 1355, 1354
 1202, 1210, 1211, 1356, 1355
 1203, 1211, 1212, 1357, 1356
 1204, 1212, 1213, 1358, 1357
 1205, 1213, 1214, 1359, 1358
 1206, 1214, 1215, 1360, 1359
 1207, 1215, 1216, 1361, 1360
 1208, 1216, 1217, 1362, 1361
 1209, 1217, 1218, 1363, 1362
 1210, 1218, 1219, 1364, 1363
 1211, 1219, 1220, 1365, 1364
 1212, 1220, 1221, 1366, 1365
 1213, 1221, 1222, 1367, 1366
 1214, 1222, 1223, 1368, 1367
 1215, 1223, 1224, 1369, 1368
 1216, 1224, 1225, 1370, 1369
 1217, 1225, 1226, 1371, 1370
 1218, 1226, 1227, 1372, 1371
 1219, 1227, 1228, 1373, 1372
 1220, 1228, 1229, 1374, 1373
 1221, 1229, 1230, 1375, 1374
 1222, 1230, 1231, 1376, 1375
 1223, 1231, 1232, 1377, 1376
 1224, 1232, 1233, 1378, 1377
 1225, 1233, 1234, 1379, 1378
 1226, 1234, 1235, 1380, 1379
 1227, 1235, 1236, 1381, 1380
 1228, 1236, 1237, 1382, 1381
 1229, 1237, 1238, 1383, 1382
 1230, 1238, 1239, 1384, 1383
 1231, 1239, 1240, 1385, 1384
 1232, 1240, 1241, 1386, 1385
 1233, 1241, 1242, 1387, 1386
 1234, 1242, 1243, 1388, 1387
 1235, 1243, 1244, 1389, 1388
 1236, 1244, 1245, 1390, 1389
 1237, 1245, 1246, 1391, 1390
 1238, 1246, 1247, 1392, 1391
 1239, 1247, 1248, 1393, 1392
 1240, 1248, 1249, 1394, 1393
 1241, 1249, 1250, 1395, 1394
 1242, 1250, 1251, 1396, 1395
 1243, 1251, 1252, 1397, 1396
 1244, 1252, 1253, 1398, 1397
 1245, 1253, 1254, 1399, 1398
 1246, 1254, 1255, 1400, 1399
 1247, 1255, 1256, 1401, 1400
 1248, 1256, 1257, 1402, 1401
 1249, 1257, 1258, 1403, 1402
 1250, 1258, 1259, 1404, 1403
 1251, 1259, 1260, 1405, 1404
 1252, 1260, 1261, 1406, 1405
 1253, 1261, 1262, 1407, 1406
 1254, 1262, 1263, 1408, 1407
 1255, 1263, 1264, 1409, 1408
 1256, 1264, 1265, 1410, 1409
 1257, 1265, 1266, 1411, 1410
 1258, 1266, 1267, 1412, 1411
 1259, 1267, 1268, 1413, 1412
 1260, 1268, 1269, 1414, 1413
 1261, 1269, 1270, 1415, 1414
 1262, 1270, 1271, 1416, 1415
 1263, 1271, 1272, 1417, 1416
 1264, 1272, 1273, 1418, 1417
 1265, 1273, 1274, 1419, 1418
 1266, 1274, 1275, 1420, 1419
 1267, 1275, 1276, 1421, 1420
 1268, 1276, 1277, 1422, 1421
 1269, 1277, 1278, 1423, 1422
 1270, 1278, 1279, 1424, 1423
 1271, 1279, 1280, 1425, 1424
 1272, 1280, 1281, 1426, 1425
 1273, 1281, 1282, 1427, 1426
 1274, 1282, 1283, 1428, 1427
 1275, 1283, 1284, 1429, 1428
 1276, 1284, 1285, 1430, 1429
 1277, 1285, 1286, 1431, 1430
 1278, 1286, 1287, 1432, 1431
 1279, 1287, 1288, 1433, 1432
 1280, 1288, 1289, 1434, 1433
 1281, 1289, 1290, 1435, 1434
 1282, 1290, 1291, 1436, 1435
 1283, 1291, 1292, 1437, 1436
 1284, 1292, 1293, 1438, 1437
 1285, 1293, 1294, 1439, 1438
 1286, 1294, 1295, 1440, 1439
 1287, 1295, 1296, 1441, 1440
 1288, 1296, 1297, 1442, 1441
 1289, 1297, 1298, 1443, 1442
 1290, 1298, 1299, 1444, 1443
 1291, 1299, 1300, 1445, 1444
 1292, 1300, 1301, 1446, 1445
 1293, 1301, 1302, 1447, 1446
 1294, 1302, 1303, 1448, 1447
 1295, 1303, 1304, 1449, 1448
 1296, 1304, 1305, 1450, 1449
 1297, 1306, 1307, 1452, 1451
 1298, 1307, 1308, 1453, 1452
 1299, 1308, 1309, 1454, 1453
 1300, 1309, 1310, 1455, 1454
 1301, 1310, 1311, 1456, 1455
 1302, 1311, 1312, 1457, 1456
 1303, 1312, 1313, 1458, 1457
 1304, 1313, 1314, 1459, 1458
 1305, 1314, 1315, 1460, 1459
 1306, 1315, 1316, 1461, 1460
 1307, 1316, 1317, 1462, 1461
 1308, 1317, 1318, 1463, 1462
 1309, 1318, 1319, 1464, 1463
 1310, 1319, 1320, 1465, 1464
 1311, 1320, 1321, 1466, 1465
 1312, 1321, 1322, 1467, 1466
 1313, 1322, 1323, 1468, 1467
 1314, 1323, 1324, 1469, 1468
 1315, 1324, 1325, 1470, 1469
 1316, 1325, 1326, 1471, 1470
 1317, 1326, 1327, 1472, 1471
 1318, 1327, 1328, 1473, 1472
 1319, 1328, 1329, 1474, 1473
 1320, 1329, 1330, 1475, 1474
 1321, 1330, 1331, 1476, 1475
 1322, 1331, 1332, 1477, 1476
 1323, 1332, 1333, 1478, 1477
 1324, 1333, 1334, 1479, 1478
 1325, 1334, 1335, 1480, 1479
 1326, 1335, 1336, 1481, 1480
 1327, 1336, 1337, 1482, 1481
 1328, 1337, 1338, 1483, 1482
 1329, 1338, 1339, 1484, 1483
 1330, 1339, 1340, 1485, 1484
 1331, 1340, 1341, 1486, 1485
 1332, 1341, 1342, 1487, 1486
 1333, 1342, 1343, 1488, 1487
 1334, 1343, 1344, 1489, 1488
 1335, 1344, 1345, 1490, 1489
 1336, 1345, 1346, 1491, 1490
 1337, 1346, 1347, 1492, 1491
 1338, 1347, 1348, 1493, 1492
 1339, 1348, 1349, 1494, 1493
 1340, 1349, 1350, 1495, 1494
 1341, 1350, 1351, 1496, 1495
 1342, 1351, 1352, 1497, 1496
 1343, 1352, 1353, 1498, 1497
 1344, 1353, 1354, 1499, 1498
 1345, 1354, 1355, 1500, 1499
 1346, 1355, 1356, 1501, 1500
 1347, 1356, 1357, 1502, 1501
 1348, 1357, 1358, 1503, 1502
 1349, 1358, 1359, 1504, 1503
 1350, 1359, 1360, 1505, 1504
 1351, 1360, 1361, 1506, 1505
 1352, 1361, 1362, 1507, 1506
 1353, 1362, 1363, 1508, 1507
 1354, 1363, 1364, 1509, 1508
 1355, 1364, 1365, 1510, 1509
 1356, 1365, 1366, 1511, 1510
 1357, 1366, 1367, 1512, 1511
 1358, 1367, 1368, 1513, 1512
 1359, 1368, 1369, 1514, 1513
 1360, 1369, 1370, 1515, 1514
 1361, 1370, 1371, 1516, 1515
 1362, 1371, 1372, 1517, 1516
 1363, 1372, 1373, 1518, 1517
 1364, 1373, 1374, 1519, 1518
 1365, 1374, 1375, 1520, 1519
 1366, 1375, 1376, 1521, 1520
 1367, 1376, 1377, 1522, 1521
 1368, 1377, 1378, 1523, 1522
 1369, 1378, 1379, 1524, 1523
 1370, 1379, 1380, 1525, 1524
 1371, 1380, 1381, 1526, 1525
 1372, 1381, 1382, 1527, 1526
 1373, 1382, 1383, 1528, 1527
 1374, 1383, 1384, 1529, 1528
 1375, 1384, 1385, 1530, 1529
 1376, 1385, 1386, 1531, 1530
 1377, 1386, 1387, 1532, 1531
 1378, 1387, 1388, 1533, 1532
 1379, 1388, 1389, 1534, 1533
 1380, 1389, 1390, 1535, 1534
 1381, 1390, 1391, 1536, 1535
 1382, 1391, 1392, 1537, 1536
 1383, 1392, 1393, 1538, 1537
 1384, 1393, 1394, 1539, 1538
 1385, 1394, 1395, 1540, 1539
 1386, 1395, 1396, 1541, 1540
 1387, 1396, 1397, 1542, 1541
 1388, 1397, 1398, 1543, 1542
 1389, 1398, 1399, 1544, 1543
 1390, 1399, 1400, 1545, 1544
 1391, 1400, 1401, 1546, 1545
 1392, 1401, 1402, 1547, 1546
 1393, 1402, 1403, 1548, 1547
 1394, 1403, 1404, 1549, 1548
 1395, 1404, 1405, 1550, 1549
 1396, 1405, 1406, 1551, 1550
 1397, 1406, 1407, 1552, 1551
 1398, 1407, 1408, 1553, 1552
 1399, 1408, 1409, 1554, 1553
 1400, 1409, 1410, 1555, 1554
 1401, 1410, 1411, 1556, 1555
 1402, 1411, 1412, 1557, 1556
 1403, 1412, 1413, 1558, 1557
 1404, 1413, 1414, 1559, 1558
 1405, 1414, 1415, 1560, 1559
 1406, 1415, 1416, 1561, 1560
 1407, 1416, 1417, 1562, 1561
 1408, 1417, 1418, 1563, 1562
 1409, 1418, 1419, 1564, 1563
 1410, 1419, 1420, 1565, 1564
 1411, 1420, 1421, 1566, 1565
 1412, 1421, 1422, 1567, 1566
 1413, 1422, 1423, 1568, 1567
 1414, 1423, 1424, 1569, 1568
 1415, 1424, 1425, 1570, 1569
 1416, 1425, 1426, 1571, 1570
 1417, 1426, 1427, 1572, 1571
 1418, 1427, 1428, 1573, 1572
 1419, 1428, 1429, 1574, 1573
 1420, 1429, 1430, 1575, 1574
 1421, 1430, 1431, 1576, 1575
 1422, 1431, 1432, 1577, 1576
 1423, 1432, 1433, 1578, 1577
 1424, 1433, 1434, 1579, 1578
 1425, 1434, 1435, 1580, 1579
 1426, 1435, 1436, 1581, 1580
 1427, 1436, 1437, 1582, 1581
 1428, 1437, 1438, 1583, 1582
 1429, 1438, 1439, 1584, 1583
 1430, 1439, 1440, 1585, 1584
 1431, 1440, 1441, 1586, 1585
 1432, 1441, 1442, 1587, 1586
 1433, 1442, 1443, 1588, 1587
 1434, 1443, 1444, 1589, 1588
 1435, 1444, 1445, 1590, 1589
 1436, 1445, 1446, 1591, 1590
 1437, 1446, 1447, 1592, 1591
 1438, 1447, 1448, 1593, 1592
 1439, 1448, 1449, 1594, 1593
 1440, 1449, 1450, 1595, 1594
 1441, 1451, 1452, 1597, 1596
 1442, 1452, 1453, 1598, 1597
 1443, 1453, 1454, 1599, 1598
 1444, 1454, 1455, 1600, 1599
 1445, 1455, 1456, 1601, 1600
 1446, 1456, 1457, 1602, 1601
 1447, 1457, 1458, 1603, 1602
 1448, 1458, 1459, 1604, 1603
 1449, 1459, 1460, 1605, 1604
 1450, 1460, 1461, 1606, 1605
 1451, 1461, 1462, 1607, 1606
 1452, 1462, 1463, 1608, 1607
 1453, 1463, 1464, 1609, 1608
 1454, 1464, 1465, 1610, 1609
 1455, 1465, 1466, 1611, 1610
 1456, 1466, 1467, 1612, 1611
 1457, 1467, 1468, 1613, 1612
 1458, 1468, 1469, 1614, 1613
 1459, 1469, 1470, 1615, 1614
 1460, 1470, 1471, 1616, 1615
 1461, 1471, 1472, 1617, 1616
 1462, 1472, 1473, 1618, 1617
 1463, 1473, 1474, 1619, 1618
 1464, 1474, 1475, 1620, 1619
 1465, 1475, 1476, 1621, 1620
 1466, 1476, 1477, 1622, 1621
 1467, 1477, 1478, 1623, 1622
 1468, 1478, 1479, 1624, 1623
 1469, 1479, 1480, 1625, 1624
 1470, 1480, 1481, 1626, 1625
 1471, 1481, 1482, 1627, 1626
 1472, 1482, 1483, 1628, 1627
 1473, 1483, 1484, 1629, 1628
 1474, 1484, 1485, 1630, 1629
 1475, 1485, 1486, 1631, 1630
 1476, 1486, 1487, 1632, 1631
 1477, 1487, 1488, 1633, 1632
 1478, 1488, 1489, 1634, 1633
 1479, 1489, 1490, 1635, 1634
 1480, 1490, 1491, 1636, 1635
 1481, 1491, 1492, 1637, 1636
 1482, 1492, 1493, 1638, 1637
 1483, 1493, 1494, 1639, 1638
 1484, 1494, 1495, 1640, 1639
 1485, 1495, 1496, 1641, 1640
 1486, 1496, 1497, 1642, 1641
 1487, 1497, 1498, 1643, 1642
 1488, 1498, 1499, 1644, 1643
 1489, 1499, 1500, 1645, 1644
 1490, 1500, 1501, 1646, 1645
 1491, 1501, 1502, 1647, 1646
 1492, 1502, 1503, 1648, 1647
 1493, 1503, 1504, 1649, 1648
 1494, 1504, 1505, 1650, 1649
 1495, 1505, 1506, 1651, 1650
 1496, 1506, 1507, 1652, 1651
 1497, 1507, 1508, 1653, 1652
 1498, 1508, 1509, 1654, 1653
 1499, 1509, 1510, 1655, 1654
 1500, 1510, 1511, 1656, 1655
 1501, 1511, 1512, 1657, 1656
 1502, 1512, 1513, 1658, 1657
 1503, 1513, 1514, 1659, 1658
 1504, 1514, 1515, 1660, 1659
 1505, 1515, 1516, 1661, 1660
 1506, 1516, 1517, 1662, 1661
 1507, 1517, 1518, 1663, 1662
 1508, 1518, 1519, 1664, 1663
 1509, 1519, 1520, 1665, 1664
 1510, 1520, 1521, 1666, 1665
 1511, 1521, 1522, 1667, 1666
 1512, 1522, 1523, 1668, 1667
 1513, 1523, 1524, 1669, 1668
 1514, 1524, 1525, 1670, 1669
 1515, 1525, 1526, 1671, 1670
 1516, 1526, 1527, 1672, 1671
 1517, 1527, 1528, 1673, 1672
 1518, 1528, 1529, 1674, 1673
 1519, 1529, 1530, 1675, 1674
 1520, 1530, 1531, 1676, 1675
 1521, 1531, 1532, 1677, 1676
 1522, 1532, 1533, 1678, 1677
 1523, 1533, 1534, 1679, 1678
 1524, 1534, 1535, 1680, 1679
 1525, 1535, 1536, 1681, 1680
 1526, 1536, 1537, 1682, 1681
 1527, 1537, 1538, 1683, 1682
 1528, 1538, 1539, 1684, 1683
 1529, 1539, 1540, 1685, 1684
 1530, 1540, 1541, 1686, 1685
 1531, 1541, 1542, 1687, 1686
 1532, 1542, 1543, 1688, 1687
 1533, 1543, 1544, 1689, 1688
 1534, 1544, 1545, 1690, 1689
 1535, 1545, 1546, 1691, 1690
 1536, 1546, 1547, 1692, 1691
 1537, 1547, 1548, 1693, 1692
 1538, 1548, 1549, 1694, 1693
 1539, 1549, 1550, 1695, 1694
 1540, 1550, 1551, 1696, 1695
 1541, 1551, 1552, 1697, 1696
 1542, 1552, 1553, 1698, 1697
 1543, 1553, 1554, 1699, 1698
 1544, 1554, 1555, 1700, 1699
 1545, 1555, 1556, 1701, 1700
 1546, 1556, 1557, 1702, 1701
 1547, 1557, 1558, 1703, 1702
 1548, 1558, 1559, 1704, 1703
 1549, 1559, 1560, 1705, 1704
 1550, 1560, 1561, 1706, 1705
 1551, 1561, 1562, 1707, 1706
 1552, 1562, 1563, 1708, 1707
 1553, 1563, 1564, 1709, 1708
 1554, 1564, 1565, 1710, 1709
 1555, 1565, 1566, 1711, 1710
 1556, 1566, 1567, 1712, 1711
 1557, 1567, 1568, 1713, 1712
 1558, 1568, 1569, 1714, 1713
 1559, 1569, 1570, 1715, 1714
 1560, 1570, 1571, 1716, 1715
 1561, 1571, 1572, 1717, 1716
 1562, 1572, 1573, 1718, 1717
 1563, 1573, 1574, 1719, 1718
 1564, 1574, 1575, 1720, 1719
 1565, 1575, 1576, 1721, 1720
 1566, 1576, 1577, 1722, 1721
 1567, 1577, 1578, 1723, 1722
 1568, 1578, 1579, 1724, 1723
 1569, 1579, 1580, 1725, 1724
 1570, 1580, 1581, 1726, 1725
 1571, 1581, 1582, 1727, 1726
 1572, 1582, 1583, 1728, 1727
 1573, 1583, 1584, 1729, 1728
 1574, 1584, 1585, 1730, 1729
 1575, 1585, 1586, 1731, 1730
 1576, 1586, 1587, 1732, 1731
 1577, 1587, 1588, 1733, 1732
 1578, 1588, 1589, 1734, 1733
 1579, 1589, 1590, 1735, 1734
 1580, 1590, 1591, 1736, 1735
 1581, 1591, 1592, 1737, 1736
 1582, 1592, 1593, 1738, 1737
 1583, 1593, 1594, 1739, 1738
 1584, 1594, 1595, 1740, 1739
 1585, 1596, 1597, 1742, 1741
 1586, 1597, 1598, 1743, 1742
 1587, 1598, 1599, 1744, 1743
 1588, 1599, 1600, 1745, 1744
 1589, 1600, 1601, 1746, 1745
 1590, 1601, 1602, 1747, 1746
 1591, 1602, 1603, 1748, 1747
 1592, 1603, 1604, 1749, 1748
 1593, 1604, 1605, 1750, 1749
 1594, 1605, 1606, 1751, 1750
 1595, 1606, 1607, 1752, 1751
 1596, 1607, 1608, 1753, 1752
 1597, 1608, 1609, 1754, 1753
 1598, 1609, 1610, 1755, 1754
 1599, 1610, 1611, 1756, 1755
 1600, 1611, 1612, 1757, 1756
 1601, 1612, 1613, 1758, 1757
 1602, 1613, 1614, 1759, 1758
 1603, 1614, 1615, 1760, 1759
 1604, 1615, 1616, 1761, 1760
 1605, 1616, 1617, 1762, 1761
 1606, 1617, 1618, 1763, 1762
 1607, 1618, 1619, 1764, 1763
 1608, 1619, 1620, 1765, 1764
 1609, 1620, 1621, 1766, 1765
 1610, 1621, 1622, 1767, 1766
 1611, 1622, 1623, 1768, 1767
 1612, 1623, 1624, 1769, 1768
 1613, 1624, 1625, 1770, 1769
 1614, 1625, 1626, 1771, 1770
 1615, 1626, 1627, 1772, 1771
 1616, 1627, 1628, 1773, 1772
 1617, 1628, 1629, 1774, 1773
 1618, 1629, 1630, 1775, 1774
 1619, 1630, 1631, 1776, 1775
 1620, 1631, 1632, 1777, 1776
 1621, 1632, 1633, 1778, 1777
 1622, 1633, 1634, 1779, 1778
 1623, 1634, 1635, 1780, 1779
 1624, 1635, 1636, 1781, 1780
 1625, 1636, 1637, 1782, 1781
 1626, 1637, 1638, 1783, 1782
 1627, 1638, 1639, 1784, 1783
 1628, 1639, 1640, 1785, 1784
 1629, 1640, 1641, 1786, 1785
 1630, 1641, 1642, 1787, 1786
 1631, 1642, 1643, 1788, 1787
 1632, 1643, 1644, 1789, 1788
 1633, 1644, 1645, 1790, 1789
 1634, 1645, 1646, 1791, 1790
 1635, 1646, 1647, 1792, 1791
 1636, 1647, 1648, 1793, 1792
 1637, 1648, 1649, 1794, 1793
 1638, 1649, 1650, 1795, 1794
 1639, 1650, 1651, 1796, 1795
 1640, 1651, 1652, 1797, 1796
 1641, 1652, 1653, 1798, 1797
 1642, 1653, 1654, 1799, 1798
 1643, 1654, 1655, 1800, 1799
 1644, 1655, 1656, 1801, 1800
 1645, 1656, 1657, 1802, 1801
 1646, 1657, 1658, 1803, 1802
 1647, 1658, 1659, 1804, 1803
 1648, 1659, 1660, 1805, 1804
 1649, 1660, 1661, 1806, 1805
 1650, 1661, 1662, 1807, 1806
 1651, 1662, 1663, 1808, 1807
 1652, 1663, 1664, 1809, 1808
 1653, 1664, 1665, 1810, 1809
 1654, 1665, 1666, 1811, 1810
 1655, 1666, 1667, 1812, 1811
 1656, 1667, 1668, 1813, 1812
 1657, 1668, 1669, 1814, 1813
 1658, 1669, 1670, 1815, 1814
 1659, 1670, 1671, 1816, 1815
 1660, 1671, 1672, 1817, 1816
 1661, 1672, 1673, 1818, 1817
 1662, 1673, 1674, 1819, 1818
 1663, 1674, 1675, 1820, 1819
 1664, 1675, 1676, 1821, 1820
 1665, 1676, 1677, 1822, 1821
 1666, 1677, 1678, 1823, 1822
 1667, 1678, 1679, 1824, 1823
 1668, 1679, 1680, 1825, 1824
 1669, 1680, 1681, 1826, 1825
 1670, 1681, 1682, 1827, 1826
 1671, 1682, 1683, 1828, 1827
 1672, 1683, 1684, 1829, 1828
 1673, 1684, 1685, 1830, 1829
 1674, 1685, 1686, 1831, 1830
 1675, 1686, 1687, 1832, 1831
 1676, 1687, 1688, 1833, 1832
 1677, 1688, 1689, 1834, 1833
 1678, 1689, 1690, 1835, 1834
 1679, 1690, 1691, 1836, 1835
 1680, 1691, 1692, 1837, 1836
 1681, 1692, 1693, 1838, 1837
 1682, 1693, 1694, 1839, 1838
 1683, 1694, 1695, 1840, 1839
 1684, 1695, 1696, 1841, 1840
 1685, 1696, 1697, 1842, 1841
 1686, 1697, 1698, 1843, 1842
 1687, 1698, 1699, 1844, 1843
 1688, 1699, 1700, 1845, 1844
 1689, 1700, 1701, 1846, 1845
 1690, 1701, 1702, 1847, 1846
 1691, 1702, 1703, 1848, 1847
 1692, 1703, 1704, 1849, 1848
 1693, 1704, 1705, 1850, 1849
 1694, 1705, 1706, 1851, 1850
 1695, 1706, 1707, 1852, 1851
 1696, 1707, 1708, 1853, 1852
 1697, 1708, 1709, 1854, 1853
 1698, 1709, 1710, 1855, 1854
 1699, 1710, 1711, 1856, 1855
 1700, 1711, 1712, 1857, 1856
 1701, 1712, 1713, 1858, 1857
 1702, 1713, 1714, 1859, 1858
 1703, 1714, 1715, 1860, 1859
 1704, 1715, 1716, 1861, 1860
 1705, 1716, 1717, 1862, 1861
 1706, 1717, 1718, 1863, 1862
 1707, 1718, 1719, 1864, 1863
 1708, 1719, 1720, 1865, 1864
 1709, 1720, 1721, 1866, 1865
 1710, 1721, 1722, 1867, 1866
 1711, 1722, 1723, 1868, 1867
 1712, 1723, 1724, 1869, 1868
 1713, 1724, 1725, 1870, 1869
 1714, 1725, 1726, 1871, 1870
 1715, 1726, 1727, 1872, 1871
 1716, 1727, 1728, 1873, 1872
 1717, 1728, 1729, 1874, 1873
 1718, 1729, 1730, 1875, 1874
 1719, 1730, 1731, 1876, 1875
 1720, 1731, 1732, 1877, 1876
 1721, 1732, 1733, 1878, 1877
 1722, 1733, 1734, 1879, 1878
 1723, 1734, 1735, 1880, 1879
 1724, 1735, 1736, 1881, 1880
 1725, 1736, 1737, 1882, 1881
 1726, 1737, 1738, 1883, 1882
 1727, 1738, 1739, 1884, 1883
 1728, 1739, 1740, 1885, 1884
 1729, 1741, 1742, 1887, 1886
 1730, 1742, 1743, 1888, 1887
 1731, 1743, 1744, 1889, 1888
 1732, 1744, 1745, 1890, 1889
 1733, 1745, 1746, 1891, 1890
 1734, 1746, 1747, 1892, 1891
 1735, 1747, 1748, 1893, 1892
 1736, 1748, 1749, 1894, 1893
 1737, 1749, 1750, 1895, 1894
 1738, 1750, 1751, 1896, 1895
 1739, 1751, 1752, 1897, 1896
 1740, 1752, 1753, 1898, 1897
 1741, 1753, 1754, 1899, 1898
 1742, 1754, 1755, 1900, 1899
 1743, 1755, 1756, 1901, 1900
 1744, 1756, 1757, 1902, 1901
 1745, 1757, 1758, 1903, 1902
 1746, 1758, 1759, 1904, 1903
 1747, 1759, 1760, 1905, 1904
 1748, 1760, 1761, 1906, 1905
 1749, 1761, 1762, 1907, 1906
 1750, 1762, 1763, 1908, 1907
 1751, 1763, 1764, 1909, 1908
 1752, 1764, 1765, 1910, 1909
 1753, 1765, 1766, 1911, 1910
 1754, 1766, 1767, 1912, 1911
 1755, 1767, 1768, 1913, 1912
 1756, 1768, 1769, 1914, 1913
 1757, 1769, 1770, 1915, 1914
 1758, 1770, 1771, 1916, 1915
 1759, 1771, 1772, 1917, 1916
 1760, 1772, 1773, 1918, 1917
 1761, 1773, 1774, 1919, 1918
 1762, 1774, 1775, 1920, 1919
 1763, 1775, 1776, 1921, 1920
 1764, 1776, 1777, 1922, 1921
 1765, 1777, 1778, 1923, 1922
 1766, 1778, 1779, 1924, 1923
 1767, 1779, 1780, 1925, 1924
 1768, 1780, 1781, 1926, 1925
 1769, 1781, 1782, 1927, 1926
 1770, 1782, 1783, 1928, 1927
 1771, 1783, 1784, 1929, 1928
 1772, 1784, 1785, 1930, 1929
 1773, 1785, 1786, 1931, 1930
 1774, 1786, 1787, 1932, 1931
 1775, 1787, 1788, 1933, 1932
 1776, 1788, 1789, 1934, 1933
 1777, 1789, 1790, 1935, 1934
 1778, 1790, 1791, 1936, 1935
 1779, 1791, 1792, 1937, 1936
 1780, 1792, 1793, 1938, 1937
 1781, 1793, 1794, 1939, 1938
 1782, 1794, 1795, 1940, 1939
 1783, 1795, 1796, 1941, 1940
 1784, 1796, 1797, 1942, 1941
 1785, 1797, 1798, 1943, 1942
 1786, 1798, 1799, 1944, 1943
 1787, 1799, 1800, 1945, 1944
 1788, 1800, 1801, 1946, 1945
 1789, 1801, 1802, 1947, 1946
 1790, 1802, 1803, 1948, 1947
 1791, 1803, 1804, 1949, 1948
 1792, 1804, 1805, 1950, 1949
 1793, 1805, 1806, 1951, 1950
 1794, 1806, 1807, 1952, 1951
 1795, 1807, 1808, 1953, 1952
 1796, 1808, 1809, 1954, 1953
 1797, 1809, 1810, 1955, 1954
 1798, 1810, 1811, 1956, 1955
 1799, 1811, 1812, 1957, 1956
 1800, 1812, 1813, 1958, 1957
 1801, 1813, 1814, 1959, 1958
 1802, 1814, 1815, 1960, 1959
 1803, 1815, 1816, 1961, 1960
 1804, 1816, 1817, 1962, 1961
 1805, 1817, 1818, 1963, 1962
 1806, 1818, 1819, 1964, 1963
 1807, 1819, 1820, 1965, 1964
 1808, 1820, 1821, 1966, 1965
 1809, 1821, 1822, 1967, 1966
 1810, 1822, 1823, 1968, 1967
 1811, 1823, 1824, 1969, 1968
 1812, 1824, 1825, 1970, 1969
 1813, 1825, 1826, 1971, 1970
 1814, 1826, 1827, 1972, 1971
 1815, 1827, 1828, 1973, 1972
 1816, 1828, 1829, 1974, 1973
 1817, 1829, 1830, 1975, 1974
 1818, 1830, 1831, 1976, 1975
 1819, 1831, 1832, 1977, 1976
 1820, 1832, 1833, 1978, 1977
 1821, 1833, 1834, 1979, 1978
 1822, 1834, 1835, 1980, 1979
 1823, 1835, 1836, 1981, 1980
 1824, 1836, 1837, 1982, 1981
 1825, 1837, 1838, 1983, 1982
 1826, 1838, 1839, 1984, 1983
 1827, 1839, 1840, 1985, 1984
 1828, 1840, 1841, 1986, 1985
 1829, 1841, 1842, 1987, 1986
 1830, 1842, 1843, 1988, 1987
 1831, 1843, 1844, 1989, 1988
 1832, 1844, 1845, 1990, 1989
 1833, 1845, 1846, 1991, 1990
 1834, 1846, 1847, 1992, 1991
 1835, 1847, 1848, 1993, 1992
 1836, 1848, 1849, 1994, 1993
 1837, 1849, 1850, 1995, 1994
 1838, 1850, 1851, 1996, 1995
 1839, 1851, 1852, 1997, 1996
 1840, 1852, 1853, 1998, 1997
 1841, 1853, 1854, 1999, 1998
 1842, 1854, 1855, 2000, 1999
 1843, 1855, 1856, 2001, 2000
 1844, 1856, 1857, 2002, 2001
 1845, 1857, 1858, 2003, 2002
 1846, 1858, 1859, 2004, 2003
 1847, 1859, 1860, 2005, 2004
 1848, 1860, 1861, 2006, 2005
 1849, 1861, 1862, 2007, 2006
 1850, 1862, 1863, 2008, 2007
 1851, 1863, 1864, 2009, 2008
 1852, 1864, 1865, 2010, 2009
 1853, 1865, 1866, 2011, 2010
 1854, 1866, 1867, 2012, 2011
 1855, 1867, 1868, 2013, 2012
 1856, 1868, 1869, 2014, 2013
 1857, 1869, 1870, 2015, 2014
 1858, 1870, 1871, 2016, 2015
 1859, 1871, 1872, 2017, 2016
 1860, 1872, 1873, 2018, 2017
 1861, 1873, 1874, 2019, 2018
 1862, 1874, 1875, 2020, 2019
 1863, 1875, 1876, 2021, 2020
 1864, 1876, 1877, 2022, 2021
 1865, 1877, 1878, 2023, 2022
 1866, 1878, 1879, 2024, 2023
 1867, 1879, 1880, 2025, 2024
 1868, 1880, 1881, 2026, 2025
 1869, 1881, 1882, 2027, 2026
 1870, 1882, 1883, 2028, 2027
 1871, 1883, 1884, 2029, 2028
 1872, 1884, 1885, 2030, 2029
 1873, 1886, 1887, 2032, 2031
 1874, 1887, 1888, 2033, 2032
 1875, 1888, 1889, 2034, 2033
 1876, 1889, 1890, 2035, 2034
 1877, 1890, 1891, 2036, 2035
 1878, 1891, 1892, 2037, 2036
 1879, 1892, 1893, 2038, 2037
 1880, 1893, 1894, 2039, 2038
 1881, 1894, 1895, 2040, 2039
 1882, 1895, 1896, 2041, 2040
 1883, 1896, 1897, 2042, 2041
 1884, 1897, 1898, 2043, 2042
 1885, 1898, 1899, 2044, 2043
 1886, 1899, 1900, 2045, 2044
 1887, 1900, 1901, 2046, 2045
 1888, 1901, 1902, 2047, 2046
 1889, 1902, 1903, 2048, 2047
 1890, 1903, 1904, 2049, 2048
 1891, 1904, 1905, 2050, 2049
 1892, 1905, 1906, 2051, 2050
 1893, 1906, 1907, 2052, 2051
 1894, 1907, 1908, 2053, 2052
 1895, 1908, 1909, 2054, 2053
 1896, 1909, 1910, 2055, 2054
 1897, 1910, 1911, 2056, 2055
 1898, 1911, 1912, 2057, 2056
 1899, 1912, 1913, 2058, 2057
 1900, 1913, 1914, 2059, 2058
 1901, 1914, 1915, 2060, 2059
 1902, 1915, 1916, 2061, 2060
 1903, 1916, 1917, 2062, 2061
 1904, 1917, 1918, 2063, 2062
 1905, 1918, 1919, 2064, 2063
 1906, 1919, 1920, 2065, 2064
 1907, 1920, 1921, 2066, 2065
 1908, 1921, 1922, 2067, 2066
 1909, 1922, 1923, 2068, 2067
 1910, 1923, 1924, 2069, 2068
 1911, 1924, 1925, 2070, 2069
 1912, 1925, 1926, 2071, 2070
 1913, 1926, 1927, 2072, 2071
 1914, 1927, 1928, 2073, 2072
 1915, 1928, 1929, 2074, 2073
 1916, 1929, 1930, 2075, 2074
 1917, 1930, 1931, 2076, 2075
 1918, 1931, 1932, 2077, 2076
 1919, 1932, 1933, 2078, 2077
 1920, 1933, 1934, 2079, 2078
 1921, 1934, 1935, 2080, 2079
 1922, 1935, 1936, 2081, 2080
 1923, 1936, 1937, 2082, 2081
 1924, 1937, 1938, 2083, 2082
 1925, 1938, 1939, 2084, 2083
 1926, 1939, 1940, 2085, 2084
 1927, 1940, 1941, 2086, 2085
 1928, 1941, 1942, 2087, 2086
 1929, 1942, 1943, 2088, 2087
 1930, 1943, 1944, 2089, 2088
 1931, 1944, 1945, 2090, 2089
 1932, 1945, 1946, 2091, 2090
 1933, 1946, 1947, 2092, 2091
 1934, 1947, 1948, 2093, 2092
 1935, 1948, 1949, 2094, 2093
 1936, 1949, 1950, 2095, 2094
 1937, 1950, 1951, 2096, 2095
 1938, 1951, 1952, 2097, 2096
 1939, 1952, 1953, 2098, 2097
 1940, 1953, 1954, 2099, 2098
 1941, 1954, 1955, 2100, 2099
 1942, 1955, 1956, 2101, 2100
 1943, 1956, 1957, 2102, 2101
 1944, 1957, 1958, 2103, 2102
 1945, 1958, 1959, 2104, 2103
 1946, 1959, 1960, 2105, 2104
 1947, 1960, 1961, 2106, 2105
 1948, 1961, 1962, 2107, 2106
 1949, 1962, 1963, 2108, 2107
 1950, 1963, 1964, 2109, 2108
 1951, 1964, 1965, 2110, 2109
 1952, 1965, 1966, 2111, 2110
 1953, 1966, 1967, 2112, 2111
 1954, 1967, 1968, 2113, 2112
 1955, 1968, 1969, 2114, 2113
 1956, 1969, 1970, 2115, 2114
 1957, 1970, 1971, 2116, 2115
 1958, 1971, 1972, 2117, 2116
 1959, 1972, 1973, 2118, 2117
 1960, 1973, 1974, 2119, 2118
 1961, 1974, 1975, 2120, 2119
 1962, 1975, 1976, 2121, 2120
 1963, 1976, 1977, 2122, 2121
 1964, 1977, 1978, 2123, 2122
 1965, 1978, 1979, 2124, 2123
 1966, 1979, 1980, 2125, 2124
 1967, 1980, 1981, 2126, 2125
 1968, 1981, 1982, 2127, 2126
 1969, 1982, 1983, 2128, 2127
 1970, 1983, 1984, 2129, 2128
 1971, 1984, 1985, 2130, 2129
 1972, 1985, 1986, 2131, 2130
 1973, 1986, 1987, 2132, 2131
 1974, 1987, 1988, 2133, 2132
 1975, 1988, 1989, 2134, 2133
 1976, 1989, 1990, 2135, 2134
 1977, 1990, 1991, 2136, 2135
 1978, 1991, 1992, 2137, 2136
 1979, 1992, 1993, 2138, 2137
 1980, 1993, 1994, 2139, 2138
 1981, 1994, 1995, 2140, 2139
 1982, 1995, 1996, 2141, 2140
 1983, 1996, 1997, 2142, 2141
 1984, 1997, 1998, 2143, 2142
 1985, 1998, 1999, 2144, 2143
 1986, 1999, 2000, 2145, 2144
 1987, 2000, 2001, 2146, 2145
 1988, 2001, 2002, 2147, 2146
 1989, 2002, 2003, 2148, 2147
 1990, 2003, 2004, 2149, 2148
 1991, 2004, 2005, 2150, 2149
 1992, 2005, 2006, 2151, 2150
 1993, 2006, 2007, 2152, 2151
 1994, 2007, 2008, 2153, 2152
 1995, 2008, 2009, 2154, 2153
 1996, 2009, 2010, 2155, 2154
 1997, 2010, 2011, 2156, 2155
 1998, 2011, 2012, 2157, 2156
 1999, 2012, 2013, 2158, 2157
 2000, 2013, 2014, 2159, 2158
 2001, 2014, 2015, 2160, 2159
 2002, 2015, 2016, 2161, 2160
 2003, 2016, 2017, 2162, 2161
 2004, 2017, 2018, 2163, 2162
 2005, 2018, 2019, 2164, 2163
 2006, 2019, 2020, 2165, 2164
 2007, 2020, 2021, 2166, 2165
 2008, 2021, 2022, 2167, 2166
 2009, 2022, 2023, 2168, 2167
 2010, 2023, 2024, 2169, 2168
 2011, 2024, 2025, 2170, 2169
 2012, 2025, 2026, 2171, 2170
 2013, 2026, 2027, 2172, 2171
 2014, 2027, 2028, 2173, 2172
 2015, 2028, 2029, 2174, 2173
 2016, 2029, 2030, 2175, 2174
 2017, 2031, 2032, 2177, 2176
 2018, 2032, 2033, 2178, 2177
 2019, 2033, 2034, 2179, 2178
 2020, 2034, 2035, 2180, 2179
 2021, 2035, 2036, 2181, 2180
 2022, 2036, 2037, 2182, 2181
 2023, 2037, 2038, 2183, 2182
 2024, 2038, 2039, 2184, 2183
 2025, 2039, 2040, 2185, 2184
 2026, 2040, 2041, 2186, 2185
 2027, 2041, 2042, 2187, 2186
 2028, 2042, 2043, 2188, 2187
 2029, 2043, 2044, 2189, 2188
 2030, 2044, 2045, 2190, 2189
 2031, 2045, 2046, 2191, 2190
 2032, 2046, 2047, 2192, 2191
 2033, 2047, 2048, 2193, 2192
 2034, 2048, 2049, 2194, 2193
 2035, 2049, 2050, 2195, 2194
 2036, 2050, 2051, 2196, 2195
 2037, 2051, 2052, 2197, 2196
 2038, 2052, 2053, 2198, 2197
 2039, 2053, 2054, 2199, 2198
 2040, 2054, 2055, 2200, 2199
 2041, 2055, 2056, 2201, 2200
 2042, 2056, 2057, 2202, 2201
 2043, 2057, 2058, 2203, 2202
 2044, 2058, 2059, 2204, 2203
 2045, 2059, 2060, 2205, 2204
 2046, 2060, 2061, 2206, 2205
 2047, 2061, 2062, 2207, 2206
 2048, 2062, 2063, 2208, 2207
 2049, 2063, 2064, 2209, 2208
 2050, 2064, 2065, 2210, 2209
 2051, 2065, 2066, 2211, 2210
 2052, 2066, 2067, 2212, 2211
 2053, 2067, 2068, 2213, 2212
 2054, 2068, 2069, 2214, 2213
 2055, 2069, 2070, 2215, 2214
 2056, 2070, 2071, 2216, 2215
 2057, 2071, 2072, 2217, 2216
 2058, 2072, 2073, 2218, 2217
 2059, 2073, 2074, 2219, 2218
 2060, 2074, 2075, 2220, 2219
 2061, 2075, 2076, 2221, 2220
 2062, 2076, 2077, 2222, 2221
 2063, 2077, 2078, 2223, 2222
 2064, 2078, 2079, 2224, 2223
 2065, 2079, 2080, 2225, 2224
 2066, 2080, 2081, 2226, 2225
 2067, 2081, 2082, 2227, 2226
 2068, 2082, 2083, 2228, 2227
 2069, 2083, 2084, 2229, 2228
 2070, 2084, 2085, 2230, 2229
 2071, 2085, 2086, 2231, 2230
 2072, 2086, 2087, 2232, 2231
 2073, 2087, 2088, 2233, 2232
 2074, 2088, 2089, 2234, 2233
 2075, 2089, 2090, 2235, 2234
 2076, 2090, 2091, 2236, 2235
 2077, 2091, 2092, 2237, 2236
 2078, 2092, 2093, 2238, 2237
 2079, 2093, 2094, 2239, 2238
 2080, 2094, 2095, 2240, 2239
 2081, 2095, 2096, 2241, 2240
 2082, 2096, 2097, 2242, 2241
 2083, 2097, 2098, 2243, 2242
 2084, 2098, 2099, 2244, 2243
 2085, 2099, 2100, 2245, 2244
 2086, 2100, 2101, 2246, 2245
 2087, 2101, 2102, 2247, 2246
 2088, 2102, 2103, 2248, 2247
 2089, 2103, 2104, 2249, 2248
 2090, 2104, 2105, 2250, 2249
 2091, 2105, 2106, 2251, 2250
 2092, 2106, 2107, 2252, 2251
 2093, 2107, 2108, 2253, 2252
 2094, 2108, 2109, 2254, 2253
 2095, 2109, 2110, 2255, 2254
 2096, 2110, 2111, 2256, 2255
 2097, 2111, 2112, 2257, 2256
 2098, 2112, 2113, 2258, 2257
 2099, 2113, 2114, 2259, 2258
 2100, 2114, 2115, 2260, 2259
 2101, 2115, 2116, 2261, 2260
 2102, 2116, 2117, 2262, 2261
 2103, 2117, 2118, 2263, 2262
 2104, 2118, 2119, 2264, 2263
 2105, 2119, 2120, 2265, 2264
 2106, 2120, 2121, 2266, 2265
 2107, 2121, 2122, 2267, 2266
 2108, 2122, 2123, 2268, 2267
 2109, 2123, 2124, 2269, 2268
 2110, 2124, 2125, 2270, 2269
 2111, 2125, 2126, 2271, 2270
 2112, 2126, 2127, 2272, 2271
 2113, 2127, 2128, 2273, 2272
 2114, 2128, 2129, 2274, 2273
 2115, 2129, 2130, 2275, 2274
 2116, 2130, 2131, 2276, 2275
 2117, 2131, 2132, 2277, 2276
 2118, 2132, 2133, 2278, 2277
 2119, 2133, 2134, 2279, 2278
 2120, 2134, 2135, 2280, 2279
 2121, 2135, 2136, 2281, 2280
 2122, 2136, 2137, 2282, 2281
 2123, 2137, 2138, 2283, 2282
 2124, 2138, 2139, 2284, 2283
 2125, 2139, 2140, 2285, 2284
 2126, 2140, 2141, 2286, 2285
 2127, 2141, 2142, 2287, 2286
 2128, 2142, 2143, 2288, 2287
 2129, 2143, 2144, 2289, 2288
 2130, 2144, 2145, 2290, 2289
 2131, 2145, 2146, 2291, 2290
 2132, 2146, 2147, 2292, 2291
 2133, 2147, 2148, 2293, 2292
 2134, 2148, 2149, 2294, 2293
 2135, 2149, 2150, 2295, 2294
 2136, 2150, 2151, 2296, 2295
 2137, 2151, 2152, 2297, 2296
 2138, 2152, 2153, 2298, 2297
 2139, 2153, 2154, 2299, 2298
 2140, 2154, 2155, 2300, 2299
 2141, 2155, 2156, 2301, 2300
 2142, 2156, 2157, 2302, 2301
 2143, 2157, 2158, 2303, 2302
 2144, 2158, 2159, 2304, 2303
 2145, 2159, 2160, 2305, 2304
 2146, 2160, 2161, 2306, 2305
 2147, 2161, 2162, 2307, 2306
 2148, 2162, 2163, 2308, 2307
 2149, 2163, 2164, 2309, 2308
 2150, 2164, 2165, 2310, 2309
 2151, 2165, 2166, 2311, 2310
 2152, 2166, 2167, 2312, 2311
 2153, 2167, 2168, 2313, 2312
 2154, 2168, 2169, 2314, 2313
 2155, 2169, 2170, 2315, 2314
 2156, 2170, 2171, 2316, 2315
 2157, 2171, 2172, 2317, 2316
 2158, 2172, 2173, 2318, 2317
 2159, 2173, 2174, 2319, 2318
 2160, 2174, 2175, 2320, 2319
 2161, 2176, 2177, 2322, 2321
 2162, 2177, 2178, 2323, 2322
 2163, 2178, 2179, 2324, 2323
 2164, 2179, 2180, 2325, 2324
 2165, 2180, 2181, 2326, 2325
 2166, 2181, 2182, 2327, 2326
 2167, 2182, 2183, 2328, 2327
 2168, 2183, 2184, 2329, 2328
 2169, 2184, 2185, 2330, 2329
 2170, 2185, 2186, 2331, 2330
 2171, 2186, 2187, 2332, 2331
 2172, 2187, 2188, 2333, 2332
 2173, 2188, 2189, 2334, 2333
 2174, 2189, 2190, 2335, 2334
 2175, 2190, 2191, 2336, 2335
 2176, 2191, 2192, 2337, 2336
 2177, 2192, 2193, 2338, 2337
 2178, 2193, 2194, 2339, 2338
 2179, 2194, 2195, 2340, 2339
 2180, 2195, 2196, 2341, 2340
 2181, 2196, 2197, 2342, 2341
 2182, 2197, 2198, 2343, 2342
 2183, 2198, 2199, 2344, 2343
 2184, 2199, 2200, 2345, 2344
 2185, 2200, 2201, 2346, 2345
 2186, 2201, 2202, 2347, 2346
 2187, 2202, 2203, 2348, 2347
 2188, 2203, 2204, 2349, 2348
 2189, 2204, 2205, 2350, 2349
 2190, 2205, 2206, 2351, 2350
 2191, 2206, 2207, 2352, 2351
 2192, 2207, 2208, 2353, 2352
 2193, 2208, 2209, 2354, 2353
 2194, 2209, 2210, 2355, 2354
 2195, 2210, 2211, 2356, 2355
 2196, 2211, 2212, 2357, 2356
 2197, 2212, 2213, 2358, 2357
 2198, 2213, 2214, 2359, 2358
 2199, 2214, 2215, 2360, 2359
 2200, 2215, 2216, 2361, 2360
 2201, 2216, 2217, 2362, 2361
 2202, 2217, 2218, 2363, 2362
 2203, 2218, 2219, 2364, 2363
 2204, 2219, 2220, 2365, 2364
 2205, 2220, 2221, 2366, 2365
 2206, 2221, 2222, 2367, 2366
 2207, 2222, 2223, 2368, 2367
 2208, 2223, 2224, 2369, 2368
 2209, 2224, 2225, 2370, 2369
 2210, 2225, 2226, 2371, 2370
 2211, 2226, 2227, 2372, 2371
 2212, 2227, 2228, 2373, 2372
 2213, 2228, 2229, 2374, 2373
 2214, 2229, 2230, 2375, 2374
 2215, 2230, 2231, 2376, 2375
 2216, 2231, 2232, 2377, 2376
 2217, 2232, 2233, 2378, 2377
 2218, 2233, 2234, 2379, 2378
 2219, 2234, 2235, 2380, 2379
 2220, 2235, 2236, 2381, 2380
 2221, 2236, 2237, 2382, 2381
 2222, 2237, 2238, 2383, 2382
 2223, 2238, 2239, 2384, 2383
 2224, 2239, 2240, 2385, 2384
 2225, 2240, 2241, 2386, 2385
 2226, 2241, 2242, 2387, 2386
 2227, 2242, 2243, 2388, 2387
 2228, 2243, 2244, 2389, 2388
 2229, 2244, 2245, 2390, 2389
 2230, 2245, 2246, 2391, 2390
 2231, 2246, 2247, 2392, 2391
 2232, 2247, 2248, 2393, 2392
 2233, 2248, 2249, 2394, 2393
 2234, 2249, 2250, 2395, 2394
 2235, 2250, 2251, 2396, 2395
 2236, 2251, 2252, 2397, 2396
 2237, 2252, 2253, 2398, 2397
 2238, 2253, 2254, 2399, 2398
 2239, 2254, 2255, 2400, 2399
 2240, 2255, 2256, 2401, 2400
 2241, 2256, 2257, 2402, 2401
 2242, 2257, 2258, 2403, 2402
 2243, 2258, 2259, 2404, 2403
 2244, 2259, 2260, 2405, 2404
 2245, 2260, 2261, 2406, 2405
 2246, 2261, 2262, 2407, 2406
 2247, 2262, 2263, 2408, 2407
 2248, 2263, 2264, 2409, 2408
 2249, 2264, 2265, 2410, 2409
 2250, 2265, 2266, 2411, 2410
 2251, 2266, 2267, 2412, 2411
 2252, 2267, 2268, 2413, 2412
 2253, 2268, 2269, 2414, 2413
 2254, 2269, 2270, 2415, 2414
 2255, 2270, 2271, 2416, 2415
 2256, 2271, 2272, 2417, 2416
 2257, 2272, 2273, 2418, 2417
 2258, 2273, 2274, 2419, 2418
 2259, 2274, 2275, 2420, 2419
 2260, 2275, 2276, 2421, 2420
 2261, 2276, 2277, 2422, 2421
 2262, 2277, 2278, 2423, 2422
 2263, 2278, 2279, 2424, 2423
 2264, 2279, 2280, 2425, 2424
 2265, 2280, 2281, 2426, 2425
 2266, 2281, 2282, 2427, 2426
 2267, 2282, 2283, 2428, 2427
 2268, 2283, 2284, 2429, 2428
 2269, 2284, 2285, 2430, 2429
 2270, 2285, 2286, 2431, 2430
 2271, 2286, 2287, 2432, 2431
 2272, 2287, 2288, 2433, 2432
 2273, 2288, 2289, 2434, 2433
 2274, 2289, 2290, 2435, 2434
 2275, 2290, 2291, 2436, 2435
 2276, 2291, 2292, 2437, 2436
 2277, 2292, 2293, 2438, 2437
 2278, 2293, 2294, 2439, 2438
 2279, 2294, 2295, 2440, 2439
 2280, 2295, 2296, 2441, 2440
 2281, 2296, 2297, 2442, 2441
 2282, 2297, 2298, 2443, 2442
 2283, 2298, 2299, 2444, 2443
 2284, 2299, 2300, 2445, 2444
 2285, 2300, 2301, 2446, 2445
 2286, 2301, 2302, 2447, 2446
 2287, 2302, 2303, 2448, 2447
 2288, 2303, 2304, 2449, 2448
 2289, 2304, 2305, 2450, 2449
 2290, 2305, 2306, 2451, 2450
 2291, 2306, 2307, 2452, 2451
 2292, 2307, 2308, 2453, 2452
 2293, 2308, 2309, 2454, 2453
 2294, 2309, 2310, 2455, 2454
 2295, 2310, 2311, 2456, 2455
 2296, 2311, 2312, 2457, 2456
 2297, 2312, 2313, 2458, 2457
 2298, 2313, 2314, 2459, 2458
 2299, 2314, 2315, 2460, 2459
 2300, 2315, 2316, 2461, 2460
 2301, 2316, 2317, 2462, 2461
 2302, 2317, 2318, 2463, 2462
 2303, 2318, 2319, 2464, 2463
 2304, 2319, 2320, 2465, 2464
 2305, 2321, 2322, 2467, 2466
 2306, 2322, 2323, 2468, 2467
 2307, 2323, 2324, 2469, 2468
 2308, 2324, 2325, 2470, 2469
 2309, 2325, 2326, 2471, 2470
 2310, 2326, 2327, 2472, 2471
 2311, 2327, 2328, 2473, 2472
 2312, 2328, 2329, 2474, 2473
 2313, 2329, 2330, 2475, 2474
 2314, 2330, 2331, 2476, 2475
 2315, 2331, 2332, 2477, 2476
 2316, 2332, 2333, 2478, 2477
 2317, 2333, 2334, 2479, 2478
 2318, 2334, 2335, 2480, 2479
 2319, 2335, 2336, 2481, 2480
 2320, 2336, 2337, 2482, 2481
 2321, 2337, 2338, 2483, 2482
 2322, 2338, 2339, 2484, 2483
 2323, 2339, 2340, 2485, 2484
 2324, 2340, 2341, 2486, 2485
 2325, 2341, 2342, 2487, 2486
 2326, 2342, 2343, 2488, 2487
 2327, 2343, 2344, 2489, 2488
 2328, 2344, 2345, 2490, 2489
 2329, 2345, 2346, 2491, 2490
 2330, 2346, 2347, 2492, 2491
 2331, 2347, 2348, 2493, 2492
 2332, 2348, 2349, 2494, 2493
 2333, 2349, 2350, 2495, 2494
 2334, 2350, 2351, 2496, 2495
 2335, 2351, 2352, 2497, 2496
 2336, 2352, 2353, 2498, 2497
 2337, 2353, 2354, 2499, 2498
 2338, 2354, 2355, 2500, 2499
 2339, 2355, 2356, 2501, 2500
 2340, 2356, 2357, 2502, 2501
 2341, 2357, 2358, 2503, 2502
 2342, 2358, 2359, 2504, 2503
 2343, 2359, 2360, 2505, 2504
 2344, 2360, 2361, 2506, 2505
 2345, 2361, 2362, 2507, 2506
 2346, 2362, 2363, 2508, 2507
 2347, 2363, 2364, 2509, 2508
 2348, 2364, 2365, 2510, 2509
 2349, 2365, 2366, 2511, 2510
 2350, 2366, 2367, 2512, 2511
 2351, 2367, 2368, 2513, 2512
 2352, 2368, 2369, 2514, 2513
 2353, 2369, 2370, 2515, 2514
 2354, 2370, 2371, 2516, 2515
 2355, 2371, 2372, 2517, 2516
 2356, 2372, 2373, 2518, 2517
 2357, 2373, 2374, 2519, 2518
 2358, 2374, 2375, 2520, 2519
 2359, 2375, 2376, 2521, 2520
 2360, 2376, 2377, 2522, 2521
 2361, 2377, 2378, 2523, 2522
 2362, 2378, 2379, 2524, 2523
 2363, 2379, 2380, 2525, 2524
 2364, 2380, 2381, 2526, 2525
 2365, 2381, 2382, 2527, 2526
 2366, 2382, 2383, 2528, 2527
 2367, 2383, 2384, 2529, 2528
 2368, 2384, 2385, 2530, 2529
 2369, 2385, 2386, 2531, 2530
 2370, 2386, 2387, 2532, 2531
 2371, 2387, 2388, 2533, 2532
 2372, 2388, 2389, 2534, 2533
 2373, 2389, 2390, 2535, 2534
 2374, 2390, 2391, 2536, 2535
 2375, 2391, 2392, 2537, 2536
 2376, 2392, 2393, 2538, 2537
 2377, 2393, 2394, 2539, 2538
 2378, 2394, 2395, 2540, 2539
 2379, 2395, 2396, 2541, 2540
 2380, 2396, 2397, 2542, 2541
 2381, 2397, 2398, 2543, 2542
 2382, 2398, 2399, 2544, 2543
 2383, 2399, 2400, 2545, 2544
 2384, 2400, 2401, 2546, 2545
 2385, 2401, 2402, 2547, 2546
 2386, 2402, 2403, 2548, 2547
 2387, 2403, 2404, 2549, 2548
 2388, 2404, 2405, 2550, 2549
 2389, 2405, 2406, 2551, 2550
 2390, 2406, 2407, 2552, 2551
 2391, 2407, 2408, 2553, 2552
 2392, 2408, 2409, 2554, 2553
 2393, 2409, 2410, 2555, 2554
 2394, 2410, 2411, 2556, 2555
 2395, 2411, 2412, 2557, 2556
 2396, 2412, 2413, 2558, 2557
 2397, 2413, 2414, 2559, 2558
 2398, 2414, 2415, 2560, 2559
 2399, 2415, 2416, 2561, 2560
 2400, 2416, 2417, 2562, 2561
 2401, 2417, 2418, 2563, 2562
 2402, 2418, 2419, 2564, 2563
 2403, 2419, 2420, 2565, 2564
 2404, 2420, 2421, 2566, 2565
 2405, 2421, 2422, 2567, 2566
 2406, 2422, 2423, 2568, 2567
 2407, 2423, 2424, 2569, 2568
 2408, 2424, 2425, 2570, 2569
 2409, 2425, 2426, 2571, 2570
 2410, 2426, 2427, 2572, 2571
 2411, 2427, 2428, 2573, 2572
 2412, 2428, 2429, 2574, 2573
 2413, 2429, 2430, 2575, 2574
 2414, 2430, 2431, 2576, 2575
 2415, 2431, 2432, 2577, 2576
 2416, 2432, 2433, 2578, 2577
 2417, 2433, 2434, 2579, 2578
 2418, 2434, 2435, 2580, 2579
 2419, 2435, 2436, 2581, 2580
 2420, 2436, 2437, 2582, 2581
 2421, 2437, 2438, 2583, 2582
 2422, 2438, 2439, 2584, 2583
 2423, 2439, 2440, 2585, 2584
 2424, 2440, 2441, 2586, 2585
 2425, 2441, 2442, 2587, 2586
 2426, 2442, 2443, 2588, 2587
 2427, 2443, 2444, 2589, 2588
 2428, 2444, 2445, 2590, 2589
 2429, 2445, 2446, 2591, 2590
 2430, 2446, 2447, 2592, 2591
 2431, 2447, 2448, 2593, 2592
 2432, 2448, 2449, 2594, 2593
 2433, 2449, 2450, 2595, 2594
 2434, 2450, 2451, 2596, 2595
 2435, 2451, 2452, 2597, 2596
 2436, 2452, 2453, 2598, 2597
 2437, 2453, 2454, 2599, 2598
 2438, 2454, 2455, 2600, 2599
 2439, 2455, 2456, 2601, 2600
 2440, 2456, 2457, 2602, 2601
 2441, 2457, 2458, 2603, 2602
 2442, 2458, 2459, 2604, 2603
 2443, 2459, 2460, 2605, 2604
 2444, 2460, 2461, 2606, 2605
 2445, 2461, 2462, 2607, 2606
 2446, 2462, 2463, 2608, 2607
 2447, 2463, 2464, 2609, 2608
 2448, 2464, 2465, 2610, 2609
 2449, 2466, 2467, 2612, 2611
 2450, 2467, 2468, 2613, 2612
 2451, 2468, 2469, 2614, 2613
 2452, 2469, 2470, 2615, 2614
 2453, 2470, 2471, 2616, 2615
 2454, 2471, 2472, 2617, 2616
 2455, 2472, 2473, 2618, 2617
 2456, 2473, 2474, 2619, 2618
 2457, 2474, 2475, 2620, 2619
 2458, 2475, 2476, 2621, 2620
 2459, 2476, 2477, 2622, 2621
 2460, 2477, 2478, 2623, 2622
 2461, 2478, 2479, 2624, 2623
 2462, 2479, 2480, 2625, 2624
 2463, 2480, 2481, 2626, 2625
 2464, 2481, 2482, 2627, 2626
 2465, 2482, 2483, 2628, 2627
 2466, 2483, 2484, 2629, 2628
 2467, 2484, 2485, 2630, 2629
 2468, 2485, 2486, 2631, 2630
 2469, 2486, 2487, 2632, 2631
 2470, 2487, 2488, 2633, 2632
 2471, 2488, 2489, 2634, 2633
 2472, 2489, 2490, 2635, 2634
 2473, 2490, 2491, 2636, 2635
 2474, 2491, 2492, 2637, 2636
 2475, 2492, 2493, 2638, 2637
 2476, 2493, 2494, 2639, 2638
 2477, 2494, 2495, 2640, 2639
 2478, 2495, 2496, 2641, 2640
 2479, 2496, 2497, 2642, 2641
 2480, 2497, 2498, 2643, 2642
 2481, 2498, 2499, 2644, 2643
 2482, 2499, 2500, 2645, 2644
 2483, 2500, 2501, 2646, 2645
 2484, 2501, 2502, 2647, 2646
 2485, 2502, 2503, 2648, 2647
 2486, 2503, 2504, 2649, 2648
 2487, 2504, 2505, 2650, 2649
 2488, 2505, 2506, 2651, 2650
 2489, 2506, 2507, 2652, 2651
 2490, 2507, 2508, 2653, 2652
 2491, 2508, 2509, 2654, 2653
 2492, 2509, 2510, 2655, 2654
 2493, 2510, 2511, 2656, 2655
 2494, 2511, 2512, 2657, 2656
 2495, 2512, 2513, 2658, 2657
 2496, 2513, 2514, 2659, 2658
 2497, 2514, 2515, 2660, 2659
 2498, 2515, 2516, 2661, 2660
 2499, 2516, 2517, 2662, 2661
 2500, 2517, 2518, 2663, 2662
 2501, 2518, 2519, 2664, 2663
 2502, 2519, 2520, 2665, 2664
 2503, 2520, 2521, 2666, 2665
 2504, 2521, 2522, 2667, 2666
 2505, 2522, 2523, 2668, 2667
 2506, 2523, 2524, 2669, 2668
 2507, 2524, 2525, 2670, 2669
 2508, 2525, 2526, 2671, 2670
 2509, 2526, 2527, 2672, 2671
 2510, 2527, 2528, 2673, 2672
 2511, 2528, 2529, 2674, 2673
 2512, 2529, 2530, 2675, 2674
 2513, 2530, 2531, 2676, 2675
 2514, 2531, 2532, 2677, 2676
 2515, 2532, 2533, 2678, 2677
 2516, 2533, 2534, 2679, 2678
 2517, 2534, 2535, 2680, 2679
 2518, 2535, 2536, 2681, 2680
 2519, 2536, 2537, 2682, 2681
 2520, 2537, 2538, 2683, 2682
 2521, 2538, 2539, 2684, 2683
 2522, 2539, 2540, 2685, 2684
 2523, 2540, 2541, 2686, 2685
 2524, 2541, 2542, 2687, 2686
 2525, 2542, 2543, 2688, 2687
 2526, 2543, 2544, 2689, 2688
 2527, 2544, 2545, 2690, 2689
 2528, 2545, 2546, 2691, 2690
 2529, 2546, 2547, 2692, 2691
 2530, 2547, 2548, 2693, 2692
 2531, 2548, 2549, 2694, 2693
 2532, 2549, 2550, 2695, 2694
 2533, 2550, 2551, 2696, 2695
 2534, 2551, 2552, 2697, 2696
 2535, 2552, 2553, 2698, 2697
 2536, 2553, 2554, 2699, 2698
 2537, 2554, 2555, 2700, 2699
 2538, 2555, 2556, 2701, 2700
 2539, 2556, 2557, 2702, 2701
 2540, 2557, 2558, 2703, 2702
 2541, 2558, 2559, 2704, 2703
 2542, 2559, 2560, 2705, 2704
 2543, 2560, 2561, 2706, 2705
 2544, 2561, 2562, 2707, 2706
 2545, 2562, 2563, 2708, 2707
 2546, 2563, 2564, 2709, 2708
 2547, 2564, 2565, 2710, 2709
 2548, 2565, 2566, 2711, 2710
 2549, 2566, 2567, 2712, 2711
 2550, 2567, 2568, 2713, 2712
 2551, 2568, 2569, 2714, 2713
 2552, 2569, 2570, 2715, 2714
 2553, 2570, 2571, 2716, 2715
 2554, 2571, 2572, 2717, 2716
 2555, 2572, 2573, 2718, 2717
 2556, 2573, 2574, 2719, 2718
 2557, 2574, 2575, 2720, 2719
 2558, 2575, 2576, 2721, 2720
 2559, 2576, 2577, 2722, 2721
 2560, 2577, 2578, 2723, 2722
 2561, 2578, 2579, 2724, 2723
 2562, 2579, 2580, 2725, 2724
 2563, 2580, 2581, 2726, 2725
 2564, 2581, 2582, 2727, 2726
 2565, 2582, 2583, 2728, 2727
 2566, 2583, 2584, 2729, 2728
 2567, 2584, 2585, 2730, 2729
 2568, 2585, 2586, 2731, 2730
 2569, 2586, 2587, 2732, 2731
 2570, 2587, 2588, 2733, 2732
 2571, 2588, 2589, 2734, 2733
 2572, 2589, 2590, 2735, 2734
 2573, 2590, 2591, 2736, 2735
 2574, 2591, 2592, 2737, 2736
 2575, 2592, 2593, 2738, 2737
 2576, 2593, 2594, 2739, 2738
 2577, 2594, 2595, 2740, 2739
 2578, 2595, 2596, 2741, 2740
 2579, 2596, 2597, 2742, 2741
 2580, 2597, 2598, 2743, 2742
 2581, 2598, 2599, 2744, 2743
 2582, 2599, 2600, 2745, 2744
 2583, 2600, 2601, 2746, 2745
 2584, 2601, 2602, 2747, 2746
 2585, 2602, 2603, 2748, 2747
 2586, 2603, 2604, 2749, 2748
 2587, 2604, 2605, 2750, 2749
 2588, 2605, 2606, 2751, 2750
 2589, 2606, 2607, 2752, 2751
 2590, 2607, 2608, 2753, 2752
 2591, 2608, 2609, 2754, 2753
 2592, 2609, 2610, 2755, 2754
*ELSET, ELSET=ROW0
 1,2,3,4,5,6,7,8,9,10,11,12,13,14,15,16
 17,18,19,20,21,22,23,24,25,26,27,28,29,30,31,32
 33,34,35,36,37,38,39,40,41,42,43,44,45,46,47,48
 49,50,51,52,53,54,55,56,57,58,59,60,61,62,63,64
 65,66,67,68,69,70,71,72,73,74,75,76,77,78,79,80
 81,82,83,84,85,86,87,88,89,90,91,92,93,94,95,96
 97,98,99,100,101,102,103,104,105,106,107,108,109,110,111,112
 113,114,115,116,117,118,119,120,121,122,123,124,125,126,127,128
 129,130,131,132,133,134,135,136,137,138,139,140,141,142,143,144
*ELSET, ELSET=ROW1
 145,146,147,148,149,150,151,152,153,154,155,156,157,158,159,160
 161,162,163,164,165,166,167,168,169,170,171,172,173,174,175,176
 177,178,179,180,181,182,183,184,185,186,187,188,189,190,191,192
 193,194,195,196,197,198,199,200,201,202,203,204,205,206,207,208
 209,210,211,212,213,214,215,216,217,218,219,220,221,222,223,224
 225,226,227,228,229,230,231,232,233,234,235,236,237,238,239,240
 241,242,243,244,245,246,247,248,249,250,251,252,253,254,255,256
 257,258,259,260,261,262,263,264,265,266,267,268,269,270,271,272
 273,274,275,276,277,278,279,280,281,282,283,284,285,286,287,288
*ELSET, ELSET=ROW2
 289,290,291,292,293,294,295,296,297,298,299,300,301,302,303,304
 305,306,307,308,309,310,311,312,313,314,315,316,317,318,319,320
 321,322,323,324,325,326,327,328,329,330,331,332,333,334,335,336
 337,338,339,340,341,342,343,344,345,346,347,348,349,350,351,352
 353,354,355,356,357,358,359,360,361,362,363,364,365,366,367,368
 369,370,371,372,373,374,375,376,377,378,379,380,381,382,383,384
 385,386,387,388,389,390,391,392,393,394,395,396,397,398,399,400
 401,402,403,404,405,406,407,408,409,410,411,412,413,414,415,416
 417,418,419,420,421,422,423,424,425,426,427,428,429,430,431,432
*ELSET, ELSET=ROW3
 433,434,435,436,437,438,439,440,441,442,443,444,445,446,447,448
 449,450,451,452,453,454,455,456,457,458,459,460,461,462,463,464
 465,466,467,468,469,470,471,472,473,474,475,476,477,478,479,480
 481,482,483,484,485,486,487,488,489,490,491,492,493,494,495,496
 497,498,499,500,501,502,503,504,505,506,507,508,509,510,511,512
 513,514,515,516,517,518,519,520,521,522,523,524,525,526,527,528
 529,530,531,532,533,534,535,536,537,538,539,540,541,542,543,544
 545,546,547,548,549,550,551,552,553,554,555,556,557,558,559,560
 561,562,563,564,565,566,567,568,569,570,571,572,573,574,575,576
*ELSET, ELSET=ROW4
 577,578,579,580,581,582,583,584,585,586,587,588,589,590,591,592
 593,594,595,596,597,598,599,600,601,602,603,604,605,606,607,608
 609,610,611,612,613,614,615,616,617,618,619,620,621,622,623,624
 625,626,627,628,629,630,631,632,633,634,635,636,637,638,639,640
 641,642,643,644,645,646,647,648,649,650,651,652,653,654,655,656
 657,658,659,660,661,662,663,664,665,666,667,668,669,670,671,672
 673,674,675,676,677,678,679,680,681,682,683,684,685,686,687,688
 689,690,691,692,693,694,695,696,697,698,699,700,701,702,703,704
 705,706,707,708,709,710,711,712,713,714,715,716,717,718,719,720
*ELSET, ELSET=ROW5
 721,722,723,724,725,726,727,728,729,730,731,732,733,734,735,736
 737,738,739,740,741,742,743,744,745,746,747,748,749,750,751,752
 753,754,755,756,757,758,759,760,761,762,763,764,765,766,767,768
 769,770,771,772,773,774,775,776,777,778,779,780,781,782,783,784
 785,786,787,788,789,790,791,792,793,794,795,796,797,798,799,800
 801,802,803,804,805,806,807,808,809,810,811,812,813,814,815,816
 817,818,819,820,821,822,823,824,825,826,827,828,829,830,831,832
 833,834,835,836,837,838,839,840,841,842,843,844,845,846,847,848
 849,850,851,852,853,854,855,856,857,858,859,860,861,862,863,864
*ELSET, ELSET=ROW6
 865,866,867,868,869,870,871,872,873,874,875,876,877,878,879,880
 881,882,883,884,885,886,887,888,889,890,891,892,893,894,895,896
 897,898,899,900,901,902,903,904,905,906,907,908,909,910,911,912
 913,914,915,916,917,918,919,920,921,922,923,924,925,926,927,928
 929,930,931,932,933,934,935,936,937,938,939,940,941,942,943,944
 945,946,947,948,949,950,951,952,953,954,955,956,957,958,959,960
 961,962,963,964,965,966,967,968,969,970,971,972,973,974,975,976
 977,978,979,980,981,982,983,984,985,986,987,988,989,990,991,992
 993,994,995,996,997,998,999,1000,1001,1002,1003,1004,1005,1006,1007,1008
*ELSET, ELSET=ROW7
 1009,1010,1011,1012,1013,1014,1015,1016,1017,1018,1019,1020,1021,1022,1023,1024
 1025,1026,1027,1028,1029,1030,1031,1032,1033,1034,1035,1036,1037,1038,1039,1040
 1041,1042,1043,1044,1045,1046,1047,1048,1049,1050,1051,1052,1053,1054,1055,1056
 1057,1058,1059,1060,1061,1062,1063,1064,1065,1066,1067,1068,1069,1070,1071,1072
 1073,1074,1075,1076,1077,1078,1079,1080,1081,1082,1083,1084,1085,1086,1087,1088
 1089,1090,1091,1092,1093,1094,1095,1096,1097,1098,1099,1100,1101,1102,1103,1104
 1105,1106,1107,1108,1109,1110,1111,1112,1113,1114,1115,1116,1117,1118,1119,1120
 1121,1122,1123,1124,1125,1126,1127,1128,1129,1130,1131,1132,1133,1134,1135,1136
 1137,1138,1139,1140,1141,1142,1143,1144,1145,1146,1147,1148,1149,1150,1151,1152
*ELSET, ELSET=ROW8
 1153,1154,1155,1156,1157,1158,1159,1160,1161,1162,1163,1164,1165,1166,1167,1168
 1169,1170,1171,1172,1173,1174,1175,1176,1177,1178,1179,1180,1181,1182,1183,1184
 1185,1186,1187,1188,1189,1190,1191,1192,1193,1194,1195,1196,1197,1198,1199,1200
 1201,1202,1203,1204,1205,1206,1207,1208,1209,1210,1211,1212,1213,1214,1215,1216
 1217,1218,1219,1220,1221,1222,1223,1224,1225,1226,1227,1228,1229,1230,1231,1232
 1233,1234,1235,1236,1237,1238,1239,1240,1241,1242,1243,1244,1245,1246,1247,1248
 1249,1250,1251,1252,1253,1254,1255,1256,1257,1258,1259,1260,1261,1262,1263,1264
 1265,1266,1267,1268,1269,1270,1271,1272,1273,1274,1275,1276,1277,1278,1279,1280
 1281,1282,1283,1284,1285,1286,1287,1288,1289,1290,1291,1292,1293,1294,1295,1296
*ELSET, ELSET=ROW9
 1297,1298,1299,1300,1301,1302,1303,1304,1305,1306,1307,1308,1309,1310,1311,1312
 1313,1314,1315,1316,1317,1318,1319,1320,1321,1322,1323,1324,1325,1326,1327,1328
 1329,1330,1331,1332,1333,1334,1335,1336,1337,1338,1339,1340,1341,1342,1343,1344
 1345,1346,1347,1348,1349,1350,1351,1352,1353,1354,1355,1356,1357,1358,1359,1360
 1361,1362,1363,1364,1365,1366,1367,1368,1369,1370,1371,1372,1373,1374,1375,1376
 1377,1378,1379,1380,1381,1382,1383,1384,1385,1386,1387,1388,1389,1390,1391,1392
 1393,1394,1395,1396,1397,1398,1399,1400,1401,1402,1403,1404,1405,1406,1407,1408
 1409,1410,1411,1412,1413,1414,1415,1416,1417,1418,1419,1420,1421,1422,1423,1424
 1425,1426,1427,1428,1429,1430,1431,1432,1433,1434,1435,1436,1437,1438,1439,1440
*ELSET, ELSET=ROW10
 1441,1442,1443,1444,1445,1446,1447,1448,1449,1450,1451,1452,1453,1454,1455,1456
 1457,1458,1459,1460,1461,1462,1463,1464,1465,1466,1467,1468,1469,1470,1471,1472
 1473,1474,1475,1476,1477,1478,1479,1480,1481,1482,1483,1484,1485,1486,1487,1488
 1489,1490,1491,1492,1493,1494,1495,1496,1497,1498,1499,1500,1501,1502,1503,1504
 1505,1506,1507,1508,1509,1510,1511,1512,1513,1514,1515,1516,1517,1518,1519,1520
 1521,1522,1523,1524,1525,1526,1527,1528,1529,1530,1531,1532,1533,1534,1535,1536
 1537,1538,1539,1540,1541,1542,1543,1544,1545,1546,1547,1548,1549,1550,1551,1552
 1553,1554,1555,1556,1557,1558,1559,1560,1561,1562,1563,1564,1565,1566,1567,1568
 1569,1570,1571,1572,1573,1574,1575,1576,1577,1578,1579,1580,1581,1582,1583,1584
*ELSET, ELSET=ROW11
 1585,1586,1587,1588,1589,1590,1591,1592,1593,1594,1595,1596,1597,1598,1599,1600
 1601,1602,1603,1604,1605,1606,1607,1608,1609,1610,1611,1612,1613,1614,1615,1616
 1617,1618,1619,1620,1621,1622,1623,1624,1625,1626,1627,1628,1629,1630,1631,1632
 1633,1634,1635,1636,1637,1638,1639,1640,1641,1642,1643,1644,1645,1646,1647,1648
 1649,1650,1651,1652,1653,1654,1655,1656,1657,1658,1659,1660,1661,1662,1663,1664
 1665,1666,1667,1668,1669,1670,1671,1672,1673,1674,1675,1676,1677,1678,1679,1680
 1681,1682,1683,1684,1685,1686,1687,1688,1689,1690,1691,1692,1693,1694,1695,1696
 1697,1698,1699,1700,1701,1702,1703,1704,1705,1706,1707,1708,1709,1710,1711,1712
 1713,1714,1715,1716,1717,1718,1719,1720,1721,1722,1723,1724,1725,1726,1727,1728
*ELSET, ELSET=ROW12
 1729,1730,1731,1732,1733,1734,1735,1736,1737,1738,1739,1740,1741,1742,1743,1744
 1745,1746,1747,1748,1749,1750,1751,1752,1753,1754,1755,1756,1757,1758,1759,1760
 1761,1762,1763,1764,1765,1766,1767,1768,1769,1770,1771,1772,1773,1774,1775,1776
 1777,1778,1779,1780,1781,1782,1783,1784,1785,1786,1787,1788,1789,1790,1791,1792
 1793,1794,1795,1796,1797,1798,1799,1800,1801,1802,1803,1804,1805,1806,1807,1808
 1809,1810,1811,1812,1813,1814,1815,1816,1817,1818,1819,1820,1821,1822,1823,1824
 1825,1826,1827,1828,1829,1830,1831,1832,1833,1834,1835,1836,1837,1838,1839,1840
 1841,1842,1843,1844,1845,1846,1847,1848,1849,1850,1851,1852,1853,1854,1855,1856
 1857,1858,1859,1860,1861,1862,1863,1864,1865,1866,1867,1868,1869,1870,1871,1872
*ELSET, ELSET=ROW13
 1873,1874,1875,1876,1877,1878,1879,1880,1881,1882,1883,1884,1885,1886,1887,1888
 1889,1890,1891,1892,1893,1894,1895,1896,1897,1898,1899,1900,1901,1902,1903,1904
 1905,1906,1907,1908,1909,1910,1911,1912,1913,1914,1915,1916,1917,1918,1919,1920
 1921,1922,1923,1924,1925,1926,1927,1928,1929,1930,1931,1932,1933,1934,1935,1936
 1937,1938,1939,1940,1941,1942,1943,1944,1945,1946,1947,1948,1949,1950,1951,1952
 1953,1954,1955,1956,1957,1958,1959,1960,1961,1962,1963,1964,1965,1966,1967,1968
 1969,1970,1971,1972,1973,1974,1975,1976,1977,1978,1979,1980,1981,1982,1983,1984
 1985,1986,1987,1988,1989,1990,1991,1992,1993,1994,1995,1996,1997,1998,1999,2000
 2001,2002,2003,2004,2005,2006,2007,2008,2009,2010,2011,2012,2013,2014,2015,2016
*ELSET, ELSET=ROW14
 2017,2018,2019,2020,2021,2022,2023,2024,2025,2026,2027,2028,2029,2030,2031,2032
 2033,2034,2035,2036,2037,2038,2039,2040,2041,2042,2043,2044,2045,2046,2047,2048
 2049,2050,2051,2052,2053,2054,2055,2056,2057,2058,2059,2060,2061,2062,2063,2064
 2065,2066,2067,2068,2069,2070,2071,2072,2073,2074,2075,2076,2077,2078,2079,2080
 2081,2082,2083,2084,2085,2086,2087,2088,2089,2090,2091,2092,2093,2094,2095,2096
 2097,2098,2099,2100,2101,2102,2103,2104,2105,2106,2107,2108,2109,2110,2111,2112
 2113,2114,2115,2116,2117,2118,2119,2120,2121,2122,2123,2124,2125,2126,2127,2128
 2129,2130,2131,2132,2133,2134,2135,2136,2137,2138,2139,2140,2141,2142,2143,2144
 2145,2146,2147,2148,2149,2150,2151,2152,2153,2154,2155,2156,2157,2158,2159,2160
*ELSET, ELSET=ROW15
 2161,2162,2163,2164,2165,2166,2167,2168,2169,2170,2171,2172,2173,2174,2175,2176
 2177,2178,2179,2180,2181,2182,2183,2184,2185,2186,2187,2188,2189,2190,2191,2192
 2193,2194,2195,2196,2197,2198,2199,2200,2201,2202,2203,2204,2205,2206,2207,2208
 2209,2210,2211,2212,2213,2214,2215,2216,2217,2218,2219,2220,2221,2222,2223,2224
 2225,2226,2227,2228,2229,2230,2231,2232,2233,2234,2235,2236,2237,2238,2239,2240
 2241,2242,2243,2244,2245,2246,2247,2248,2249,2250,2251,2252,2253,2254,2255,2256
 2257,2258,2259,2260,2261,2262,2263,2264,2265,2266,2267,2268,2269,2270,2271,2272
 2273,2274,2275,2276,2277,2278,2279,2280,2281,2282,2283,2284,2285,2286,2287,2288
 2289,2290,2291,2292,2293,2294,2295,2296,2297,2298,2299,2300,2301,2302,2303,2304
*ELSET, ELSET=ROW16
 2305,2306,2307,2308,2309,2310,2311,2312,2313,2314,2315,2316,2317,2318,2319,2320
 2321,2322,2323,2324,2325,2326,2327,2328,2329,2330,2331,2332,2333,2334,2335,2336
 2337,2338,2339,2340,2341,2342,2343,2344,2345,2346,2347,2348,2349,2350,2351,2352
 2353,2354,2355,2356,2357,2358,2359,2360,2361,2362,2363,2364,2365,2366,2367,2368
 2369,2370,2371,2372,2373,2374,2375,2376,2377,2378,2379,2380,2381,2382,2383,2384
 2385,2386,2387,2388,2389,2390,2391,2392,2393,2394,2395,2396,2397,2398,2399,2400
 2401,2402,2403,2404,2405,2406,2407,2408,2409,2410,2411,2412,2413,2414,2415,2416
 2417,2418,2419,2420,2421,2422,2423,2424,2425,2426,2427,2428,2429,2430,2431,2432
 2433,2434,2435,2436,2437,2438,2439,2440,2441,2442,2443,2444,2445,2446,2447,2448
*ELSET, ELSET=ROW17
 2449,2450,2451,2452,2453,2454,2455,2456,2457,2458,2459,2460,2461,2462,2463,2464
 2465,2466,2467,2468,2469,2470,2471,2472,2473,2474,2475,2476,2477,2478,2479,2480
 2481,2482,2483,2484,2485,2486,2487,2488,2489,2490,2491,2492,2493,2494,2495,2496
 2497,2498,2499,2500,2501,2502,2503,2504,2505,2506,2507,2508,2509,2510,2511,2512
 2513,2514,2515,2516,2517,2518,2519,2520,2521,2522,2523,2524,2525,2526,2527,2528
 2529,2530,2531,2532,2533,2534,2535,2536,2537,2538,2539,2540,2541,2542,2543,2544
 2545,2546,2547,2548,2549,2550,2551,2552,2553,2554,2555,2556,2557,2558,2559,2560
 2561,2562,2563,2564,2565,2566,2567,2568,2569,2570,2571,2572,2573,2574,2575,2576
 2577,2578,2579,2580,2581,2582,2583,2584,2585,2586,2587,2588,2589,2590,2591,2592
*ORIENTATION, NAME=ORI, SYSTEM=RECTANGULAR, DEFINITION=COORDINATES
 1.0, 0.0, 0.0, 0.0, 1.0, 0.0
 3, 0.0
*SOLID SECTION, ELSET=ROW0, MATERIAL=MAT0, ORIENTATION=ORI
*SOLID SECTION, ELSET=ROW1, MATERIAL=MAT1, ORIENTATION=ORI
*SOLID SECTION, ELSET=ROW2, MATERIAL=MAT2, ORIENTATION=ORI
*SOLID SECTION, ELSET=ROW3, MATERIAL=MAT3, ORIENTATION=ORI
*SOLID SECTION, ELSET=ROW4, MATERIAL=MAT4, ORIENTATION=ORI
*SOLID SECTION, ELSET=ROW5, MATERIAL=MAT5, ORIENTATION=ORI
*SOLID SECTION, ELSET=ROW6, MATERIAL=MAT6, ORIENTATION=ORI
*SOLID SECTION, ELSET=ROW7, MATERIAL=MAT7, ORIENTATION=ORI
*SOLID SECTION, ELSET=ROW8, MATERIAL=MAT8, ORIENTATION=ORI
*SOLID SECTION, ELSET=ROW9, MATERIAL=MAT9, ORIENTATION=ORI
*SOLID SECTION, ELSET=ROW10, MATERIAL=MAT10, ORIENTATION=ORI
*SOLID SECTION, ELSET=ROW11, MATERIAL=MAT11, ORIENTATION=ORI
*SOLID SECTION, ELSET=ROW12, MATERIAL=MAT12, ORIENTATION=ORI
*SOLID SECTION, ELSET=ROW13, MATERIAL=MAT13, ORIENTATION=ORI
*SOLID SECTION, ELSET=ROW14, MATERIAL=MAT14, ORIENTATION=ORI
*SOLID SECTION, ELSET=ROW15, MATERIAL=MAT15, ORIENTATION=ORI
*SOLID SECTION, ELSET=ROW16, MATERIAL=MAT16, ORIENTATION=ORI
*SOLID SECTION, ELSET=ROW17, MATERIAL=MAT17, ORIENTATION=ORI
*MATERIAL, NAME=MAT0
*ELASTIC
 5000.0, 0.450
*EXPANSION, TYPE=ORTHO, ZERO=0.0
 0.000000, 0.000000, 0.000000
*MATERIAL, NAME=MAT1
*ELASTIC
 5000.0, 0.450
*EXPANSION, TYPE=ORTHO, ZERO=0.0
 0.063270, 0.063270, 0.063270
*MATERIAL, NAME=MAT2
*ELASTIC
 5000.0, 0.450
*EXPANSION, TYPE=ORTHO, ZERO=0.0
 0.338826, 0.338826, 0.338826
*MATERIAL, NAME=MAT3
*ELASTIC
 5000.0, 0.450
*EXPANSION, TYPE=ORTHO, ZERO=0.0
 0.230409, 0.230409, 0.230409
*MATERIAL, NAME=MAT4
*ELASTIC
 5000.0, 0.450
*EXPANSION, TYPE=ORTHO, ZERO=0.0
 0.000000, 0.000000, 0.000000
*MATERIAL, NAME=MAT5
*ELASTIC
 5000.0, 0.450
*EXPANSION, TYPE=ORTHO, ZERO=0.0
 0.000000, 0.000000, 0.000000
*MATERIAL, NAME=MAT6
*ELASTIC
 5000.0, 0.450
*EXPANSION, TYPE=ORTHO, ZERO=0.0
 0.000000, 0.000000, 0.000000
*MATERIAL, NAME=MAT7
*ELASTIC
 5000.0, 0.450
*EXPANSION, TYPE=ORTHO, ZERO=0.0
 0.000000, 0.000000, 0.000000
*MATERIAL, NAME=MAT8
*ELASTIC
 5000.0, 0.450
*EXPANSION, TYPE=ORTHO, ZERO=0.0
 0.000000, 0.000000, 0.000000
*MATERIAL, NAME=MAT9
*ELASTIC
 5000.0, 0.450
*EXPANSION, TYPE=ORTHO, ZERO=0.0
 0.002380, 0.002380, 0.002380
*MATERIAL, NAME=MAT10
*ELASTIC
 5000.0, 0.450
*EXPANSION, TYPE=ORTHO, ZERO=0.0
 0.041648, 0.041648, 0.041648
*MATERIAL, NAME=MAT11
*ELASTIC
 5000.0, 0.450
*EXPANSION, TYPE=ORTHO, ZERO=0.0
 0.072966, 0.072966, 0.072966
*MATERIAL, NAME=MAT12
*ELASTIC
 5000.0, 0.450
*EXPANSION, TYPE=ORTHO, ZERO=0.0
 0.094819, 0.094819, 0.094819
*MATERIAL, NAME=MAT13
*ELASTIC
 5000.0, 0.450
*EXPANSION, TYPE=ORTHO, ZERO=0.0
 0.105379, 0.105379, 0.105379
*MATERIAL, NAME=MAT14
*ELASTIC
 5000.0, 0.450
*EXPANSION, TYPE=ORTHO, ZERO=0.0
 0.113738, 0.113738, 0.113738
*MATERIAL, NAME=MAT15
*ELASTIC
 5000.0, 0.450
*EXPANSION, TYPE=ORTHO, ZERO=0.0
 0.120802, 0.120802, 0.120802
*MATERIAL, NAME=MAT16
*ELASTIC
 5000.0, 0.450
*EXPANSION, TYPE=ORTHO, ZERO=0.0
 0.128567, 0.128567, 0.128567
*MATERIAL, NAME=MAT17
*ELASTIC
 5000.0, 0.450
*EXPANSION, TYPE=ORTHO, ZERO=0.0
 0.132719, 0.132719, 0.132719
*NSET, NSET=BOTTOM
 1,2,3,4,5,6,7,8,9,10,11,12,13,14,15,16
 17,18,19,20,21,22,23,24,25,26,27,28,29,30,31,32
 33,34,35,36,37,38,39,40,41,42,43,44,45,46,47,48
 49,50,51,52,53,54,55,56,57,58,59,60,61,62,63,64
 65,66,67,68,69,70,71,72,73,74,75,76,77,78,79,80
 81,82,83,84,85,86,87,88,89,90,91,92,93,94,95,96
 97,98,99,100,101,102,103,104,105,106,107,108,109,110,111,112
 113,114,115,116,117,118,119,120,121,122,123,124,125,126,127,128
 129,130,131,132,133,134,135,136,137,138,139,140,141,142,143,144
 145
*NSET, NSET=LEFT
 1,146,291,436,581,726,871,1016,1161,1306,1451,1596,1741,1886,2031,2176
 2321,2466,2611
*NSET, NSET=RIGHT
 145,290,435,580,725,870,1015,1160,1305,1450,1595,1740,1885,2030,2175,2320
 2465,2610,2755
*NSET, NSET=ALLN
 1,2,3,4,5,6,7,8,9,10,11,12,13,14,15,16
 17,18,19,20,21,22,23,24,25,26,27,28,29,30,31,32
 33,34,35,36,37,38,39,40,41,42,43,44,45,46,47,48
 49,50,51,52,53,54,55,56,57,58,59,60,61,62,63,64
 65,66,67,68,69,70,71,72,73,74,75,76,77,78,79,80
 81,82,83,84,85,86,87,88,89,90,91,92,93,94,95,96
 97,98,99,100,101,102,103,104,105,106,107,108,109,110,111,112
 113,114,115,116,117,118,119,120,121,122,123,124,125,126,127,128
 129,130,131,132,133,134,135,136,137,138,139,140,141,142,143,144
 145,146,147,148,149,150,151,152,153,154,155,156,157,158,159,160
 161,162,163,164,165,166,167,168,169,170,171,172,173,174,175,176
 177,178,179,180,181,182,183,184,185,186,187,188,189,190,191,192
 193,194,195,196,197,198,199,200,201,202,203,204,205,206,207,208
 209,210,211,212,213,214,215,216,217,218,219,220,221,222,223,224
 225,226,227,228,229,230,231,232,233,234,235,236,237,238,239,240
 241,242,243,244,245,246,247,248,249,250,251,252,253,254,255,256
 257,258,259,260,261,262,263,264,265,266,267,268,269,270,271,272
 273,274,275,276,277,278,279,280,281,282,283,284,285,286,287,288
 289,290,291,292,293,294,295,296,297,298,299,300,301,302,303,304
 305,306,307,308,309,310,311,312,313,314,315,316,317,318,319,320
 321,322,323,324,325,326,327,328,329,330,331,332,333,334,335,336
 337,338,339,340,341,342,343,344,345,346,347,348,349,350,351,352
 353,354,355,356,357,358,359,360,361,362,363,364,365,366,367,368
 369,370,371,372,373,374,375,376,377,378,379,380,381,382,383,384
 385,386,387,388,389,390,391,392,393,394,395,396,397,398,399,400
 401,402,403,404,405,406,407,408,409,410,411,412,413,414,415,416
 417,418,419,420,421,422,423,424,425,426,427,428,429,430,431,432
 433,434,435,436,437,438,439,440,441,442,443,444,445,446,447,448
 449,450,451,452,453,454,455,456,457,458,459,460,461,462,463,464
 465,466,467,468,469,470,471,472,473,474,475,476,477,478,479,480
 481,482,483,484,485,486,487,488,489,490,491,492,493,494,495,496
 497,498,499,500,501,502,503,504,505,506,507,508,509,510,511,512
 513,514,515,516,517,518,519,520,521,522,523,524,525,526,527,528
 529,530,531,532,533,534,535,536,537,538,539,540,541,542,543,544
 545,546,547,548,549,550,551,552,553,554,555,556,557,558,559,560
 561,562,563,564,565,566,567,568,569,570,571,572,573,574,575,576
 577,578,579,580,581,582,583,584,585,586,587,588,589,590,591,592
 593,594,595,596,597,598,599,600,601,602,603,604,605,606,607,608
 609,610,611,612,613,614,615,616,617,618,619,620,621,622,623,624
 625,626,627,628,629,630,631,632,633,634,635,636,637,638,639,640
 641,642,643,644,645,646,647,648,649,650,651,652,653,654,655,656
 657,658,659,660,661,662,663,664,665,666,667,668,669,670,671,672
 673,674,675,676,677,678,679,680,681,682,683,684,685,686,687,688
 689,690,691,692,693,694,695,696,697,698,699,700,701,702,703,704
 705,706,707,708,709,710,711,712,713,714,715,716,717,718,719,720
 721,722,723,724,725,726,727,728,729,730,731,732,733,734,735,736
 737,738,739,740,741,742,743,744,745,746,747,748,749,750,751,752
 753,754,755,756,757,758,759,760,761,762,763,764,765,766,767,768
 769,770,771,772,773,774,775,776,777,778,779,780,781,782,783,784
 785,786,787,788,789,790,791,792,793,794,795,796,797,798,799,800
 801,802,803,804,805,806,807,808,809,810,811,812,813,814,815,816
 817,818,819,820,821,822,823,824,825,826,827,828,829,830,831,832
 833,834,835,836,837,838,839,840,841,842,843,844,845,846,847,848
 849,850,851,852,853,854,855,856,857,858,859,860,861,862,863,864
 865,866,867,868,869,870,871,872,873,874,875,876,877,878,879,880
 881,882,883,884,885,886,887,888,889,890,891,892,893,894,895,896
 897,898,899,900,901,902,903,904,905,906,907,908,909,910,911,912
 913,914,915,916,917,918,919,920,921,922,923,924,925,926,927,928
 929,930,931,932,933,934,935,936,937,938,939,940,941,942,943,944
 945,946,947,948,949,950,951,952,953,954,955,956,957,958,959,960
 961,962,963,964,965,966,967,968,969,970,971,972,973,974,975,976
 977,978,979,980,981,982,983,984,985,986,987,988,989,990,991,992
 993,994,995,996,997,998,999,1000,1001,1002,1003,1004,1005,1006,1007,1008
 1009,1010,1011,1012,1013,1014,1015,1016,1017,1018,1019,1020,1021,1022,1023,1024
 1025,1026,1027,1028,1029,1030,1031,1032,1033,1034,1035,1036,1037,1038,1039,1040
 1041,1042,1043,1044,1045,1046,1047,1048,1049,1050,1051,1052,1053,1054,1055,1056
 1057,1058,1059,1060,1061,1062,1063,1064,1065,1066,1067,1068,1069,1070,1071,1072
 1073,1074,1075,1076,1077,1078,1079,1080,1081,1082,1083,1084,1085,1086,1087,1088
 1089,1090,1091,1092,1093,1094,1095,1096,1097,1098,1099,1100,1101,1102,1103,1104
 1105,1106,1107,1108,1109,1110,1111,1112,1113,1114,1115,1116,1117,1118,1119,1120
 1121,1122,1123,1124,1125,1126,1127,1128,1129,1130,1131,1132,1133,1134,1135,1136
 1137,1138,1139,1140,1141,1142,1143,1144,1145,1146,1147,1148,1149,1150,1151,1152
 1153,1154,1155,1156,1157,1158,1159,1160,1161,1162,1163,1164,1165,1166,1167,1168
 1169,1170,1171,1172,1173,1174,1175,1176,1177,1178,1179,1180,1181,1182,1183,1184
 1185,1186,1187,1188,1189,1190,1191,1192,1193,1194,1195,1196,1197,1198,1199,1200
 1201,1202,1203,1204,1205,1206,1207,1208,1209,1210,1211,1212,1213,1214,1215,1216
 1217,1218,1219,1220,1221,1222,1223,1224,1225,1226,1227,1228,1229,1230,1231,1232
 1233,1234,1235,1236,1237,1238,1239,1240,1241,1242,1243,1244,1245,1246,1247,1248
 1249,1250,1251,1252,1253,1254,1255,1256,1257,1258,1259,1260,1261,1262,1263,1264
 1265,1266,1267,1268,1269,1270,1271,1272,1273,1274,1275,1276,1277,1278,1279,1280
 1281,1282,1283,1284,1285,1286,1287,1288,1289,1290,1291,1292,1293,1294,1295,1296
 1297,1298,1299,1300,1301,1302,1303,1304,1305,1306,1307,1308,1309,1310,1311,1312
 1313,1314,1315,1316,1317,1318,1319,1320,1321,1322,1323,1324,1325,1326,1327,1328
 1329,1330,1331,1332,1333,1334,1335,1336,1337,1338,1339,1340,1341,1342,1343,1344
 1345,1346,1347,1348,1349,1350,1351,1352,1353,1354,1355,1356,1357,1358,1359,1360
 1361,1362,1363,1364,1365,1366,1367,1368,1369,1370,1371,1372,1373,1374,1375,1376
 1377,1378,1379,1380,1381,1382,1383,1384,1385,1386,1387,1388,1389,1390,1391,1392
 1393,1394,1395,1396,1397,1398,1399,1400,1401,1402,1403,1404,1405,1406,1407,1408
 1409,1410,1411,1412,1413,1414,1415,1416,1417,1418,1419,1420,1421,1422,1423,1424
 1425,1426,1427,1428,1429,1430,1431,1432,1433,1434,1435,1436,1437,1438,1439,1440
 1441,1442,1443,1444,1445,1446,1447,1448,1449,1450,1451,1452,1453,1454,1455,1456
 1457,1458,1459,1460,1461,1462,1463,1464,1465,1466,1467,1468,1469,1470,1471,1472
 1473,1474,1475,1476,1477,1478,1479,1480,1481,1482,1483,1484,1485,1486,1487,1488
 1489,1490,1491,1492,1493,1494,1495,1496,1497,1498,1499,1500,1501,1502,1503,1504
 1505,1506,1507,1508,1509,1510,1511,1512,1513,1514,1515,1516,1517,1518,1519,1520
 1521,1522,1523,1524,1525,1526,1527,1528,1529,1530,1531,1532,1533,1534,1535,1536
 1537,1538,1539,1540,1541,1542,1543,1544,1545,1546,1547,1548,1549,1550,1551,1552
 1553,1554,1555,1556,1557,1558,1559,1560,1561,1562,1563,1564,1565,1566,1567,1568
 1569,1570,1571,1572,1573,1574,1575,1576,1577,1578,1579,1580,1581,1582,1583,1584
 1585,1586,1587,1588,1589,1590,1591,1592,1593,1594,1595,1596,1597,1598,1599,1600
 1601,1602,1603,1604,1605,1606,1607,1608,1609,1610,1611,1612,1613,1614,1615,1616
 1617,1618,1619,1620,1621,1622,1623,1624,1625,1626,1627,1628,1629,1630,1631,1632
 1633,1634,1635,1636,1637,1638,1639,1640,1641,1642,1643,1644,1645,1646,1647,1648
 1649,1650,1651,1652,1653,1654,1655,1656,1657,1658,1659,1660,1661,1662,1663,1664
 1665,1666,1667,1668,1669,1670,1671,1672,1673,1674,1675,1676,1677,1678,1679,1680
 1681,1682,1683,1684,1685,1686,1687,1688,1689,1690,1691,1692,1693,1694,1695,1696
 1697,1698,1699,1700,1701,1702,1703,1704,1705,1706,1707,1708,1709,1710,1711,1712
 1713,1714,1715,1716,1717,1718,1719,1720,1721,1722,1723,1724,1725,1726,1727,1728
 1729,1730,1731,1732,1733,1734,1735,1736,1737,1738,1739,1740,1741,1742,1743,1744
 1745,1746,1747,1748,1749,1750,1751,1752,1753,1754,1755,1756,1757,1758,1759,1760
 1761,1762,1763,1764,1765,1766,1767,1768,1769,1770,1771,1772,1773,1774,1775,1776
 1777,1778,1779,1780,1781,1782,1783,1784,1785,1786,1787,1788,1789,1790,1791,1792
 1793,1794,1795,1796,1797,1798,1799,1800,1801,1802,1803,1804,1805,1806,1807,1808
 1809,1810,1811,1812,1813,1814,1815,1816,1817,1818,1819,1820,1821,1822,1823,1824
 1825,1826,1827,1828,1829,1830,1831,1832,1833,1834,1835,1836,1837,1838,1839,1840
 1841,1842,1843,1844,1845,1846,1847,1848,1849,1850,1851,1852,1853,1854,1855,1856
 1857,1858,1859,1860,1861,1862,1863,1864,1865,1866,1867,1868,1869,1870,1871,1872
 1873,1874,1875,1876,1877,1878,1879,1880,1881,1882,1883,1884,1885,1886,1887,1888
 1889,1890,1891,1892,1893,1894,1895,1896,1897,1898,1899,1900,1901,1902,1903,1904
 1905,1906,1907,1908,1909,1910,1911,1912,1913,1914,1915,1916,1917,1918,1919,1920
 1921,1922,1923,1924,1925,1926,1927,1928,1929,1930,1931,1932,1933,1934,1935,1936
 1937,1938,1939,1940,1941,1942,1943,1944,1945,1946,1947,1948,1949,1950,1951,1952
 1953,1954,1955,1956,1957,1958,1959,1960,1961,1962,1963,1964,1965,1966,1967,1968
 1969,1970,1971,1972,1973,1974,1975,1976,1977,1978,1979,1980,1981,1982,1983,1984
 1985,1986,1987,1988,1989,1990,1991,1992,1993,1994,1995,1996,1997,1998,1999,2000
 2001,2002,2003,2004,2005,2006,2007,2008,2009,2010,2011,2012,2013,2014,2015,2016
 2017,2018,2019,2020,2021,2022,2023,2024,2025,2026,2027,2028,2029,2030,2031,2032
 2033,2034,2035,2036,2037,2038,2039,2040,2041,2042,2043,2044,2045,2046,2047,2048
 2049,2050,2051,2052,2053,2054,2055,2056,2057,2058,2059,2060,2061,2062,2063,2064
 2065,2066,2067,2068,2069,2070,2071,2072,2073,2074,2075,2076,2077,2078,2079,2080
 2081,2082,2083,2084,2085,2086,2087,2088,2089,2090,2091,2092,2093,2094,2095,2096
 2097,2098,2099,2100,2101,2102,2103,2104,2105,2106,2107,2108,2109,2110,2111,2112
 2113,2114,2115,2116,2117,2118,2119,2120,2121,2122,2123,2124,2125,2126,2127,2128
 2129,2130,2131,2132,2133,2134,2135,2136,2137,2138,2139,2140,2141,2142,2143,2144
 2145,2146,2147,2148,2149,2150,2151,2152,2153,2154,2155,2156,2157,2158,2159,2160
 2161,2162,2163,2164,2165,2166,2167,2168,2169,2170,2171,2172,2173,2174,2175,2176
 2177,2178,2179,2180,2181,2182,2183,2184,2185,2186,2187,2188,2189,2190,2191,2192
 2193,2194,2195,2196,2197,2198,2199,2200,2201,2202,2203,2204,2205,2206,2207,2208
 2209,2210,2211,2212,2213,2214,2215,2216,2217,2218,2219,2220,2221,2222,2223,2224
 2225,2226,2227,2228,2229,2230,2231,2232,2233,2234,2235,2236,2237,2238,2239,2240
 2241,2242,2243,2244,2245,2246,2247,2248,2249,2250,2251,2252,2253,2254,2255,2256
 2257,2258,2259,2260,2261,2262,2263,2264,2265,2266,2267,2268,2269,2270,2271,2272
 2273,2274,2275,2276,2277,2278,2279,2280,2281,2282,2283,2284,2285,2286,2287,2288
 2289,2290,2291,2292,2293,2294,2295,2296,2297,2298,2299,2300,2301,2302,2303,2304
 2305,2306,2307,2308,2309,2310,2311,2312,2313,2314,2315,2316,2317,2318,2319,2320
 2321,2322,2323,2324,2325,2326,2327,2328,2329,2330,2331,2332,2333,2334,2335,2336
 2337,2338,2339,2340,2341,2342,2343,2344,2345,2346,2347,2348,2349,2350,2351,2352
 2353,2354,2355,2356,2357,2358,2359,2360,2361,2362,2363,2364,2365,2366,2367,2368
 2369,2370,2371,2372,2373,2374,2375,2376,2377,2378,2379,2380,2381,2382,2383,2384
 2385,2386,2387,2388,2389,2390,2391,2392,2393,2394,2395,2396,2397,2398,2399,2400
 2401,2402,2403,2404,2405,2406,2407,2408,2409,2410,2411,2412,2413,2414,2415,2416
 2417,2418,2419,2420,2421,2422,2423,2424,2425,2426,2427,2428,2429,2430,2431,2432
 2433,2434,2435,2436,2437,2438,2439,2440,2441,2442,2443,2444,2445,2446,2447,2448
 2449,2450,2451,2452,2453,2454,2455,2456,2457,2458,2459,2460,2461,2462,2463,2464
 2465,2466,2467,2468,2469,2470,2471,2472,2473,2474,2475,2476,2477,2478,2479,2480
 2481,2482,2483,2484,2485,2486,2487,2488,2489,2490,2491,2492,2493,2494,2495,2496
 2497,2498,2499,2500,2501,2502,2503,2504,2505,2506,2507,2508,2509,2510,2511,2512
 2513,2514,2515,2516,2517,2518,2519,2520,2521,2522,2523,2524,2525,2526,2527,2528
 2529,2530,2531,2532,2533,2534,2535,2536,2537,2538,2539,2540,2541,2542,2543,2544
 2545,2546,2547,2548,2549,2550,2551,2552,2553,2554,2555,2556,2557,2558,2559,2560
 2561,2562,2563,2564,2565,2566,2567,2568,2569,2570,2571,2572,2573,2574,2575,2576
 2577,2578,2579,2580,2581,2582,2583,2584,2585,2586,2587,2588,2589,2590,2591,2592
 2593,2594,2595,2596,2597,2598,2599,2600,2601,2602,2603,2604,2605,2606,2607,2608
 2609,2610,2611,2612,2613,2614,2615,2616,2617,2618,2619,2620,2621,2622,2623,2624
 2625,2626,2627,2628,2629,2630,2631,2632,2633,2634,2635,2636,2637,2638,2639,2640
 2641,2642,2643,2644,2645,2646,2647,2648,2649,2650,2651,2652,2653,2654,2655,2656
 2657,2658,2659,2660,2661,2662,2663,2664,2665,2666,2667,2668,2669,2670,2671,2672
 2673,2674,2675,2676,2677,2678,2679,2680,2681,2682,2683,2684,2685,2686,2687,2688
 2689,2690,2691,2692,2693,2694,2695,2696,2697,2698,2699,2700,2701,2702,2703,2704
 2705,2706,2707,2708,2709,2710,2711,2712,2713,2714,2715,2716,2717,2718,2719,2720
 2721,2722,2723,2724,2725,2726,2727,2728,2729,2730,2731,2732,2733,2734,2735,2736
 2737,2738,2739,2740,2741,2742,2743,2744,2745,2746,2747,2748,2749,2750,2751,2752
 2753,2754,2755
*INITIAL CONDITIONS, TYPE=TEMPERATURE
 ALLN, 0.0
*BOUNDARY
 BOTTOM, 1, 2
*STEP
 Confined depth growth via thermal eigenstrain -> interface residual stress
*STATIC
*TEMPERATURE
 ALLN, 1.0
*OUTPUT, FIELD
*NODE OUTPUT
 U
*ELEMENT OUTPUT, POSITION=CENTROID
 S, COORD
*END STEP
