*HEADING
 Implant biofilm NSP UMAT: cond=DH profile=thread amp=0.180  (C3D8 thin slice, z-symmetry)
*NODE
 1, 0.000000, 0.000000, 0.000000
 2, 0.041667, 0.003067, 0.000000
 3, 0.083333, 0.012058, 0.000000
 4, 0.125000, 0.026360, 0.000000
 5, 0.166667, 0.045000, 0.000000
 6, 0.208333, 0.066706, 0.000000
 7, 0.250000, 0.090000, 0.000000
 8, 0.291667, 0.113294, 0.000000
 9, 0.333333, 0.135000, 0.000000
 10, 0.375000, 0.153640, 0.000000
 11, 0.416667, 0.167942, 0.000000
 12, 0.458333, 0.176933, 0.000000
 13, 0.500000, 0.180000, 0.000000
 14, 0.541667, 0.176933, 0.000000
 15, 0.583333, 0.167942, 0.000000
 16, 0.625000, 0.153640, 0.000000
 17, 0.666667, 0.135000, 0.000000
 18, 0.708333, 0.113294, 0.000000
 19, 0.750000, 0.090000, 0.000000
 20, 0.791667, 0.066706, 0.000000
 21, 0.833333, 0.045000, 0.000000
 22, 0.875000, 0.026360, 0.000000
 23, 0.916667, 0.012058, 0.000000
 24, 0.958333, 0.003067, 0.000000
 25, 1.000000, 0.000000, 0.000000
 26, 1.041667, 0.003067, 0.000000
 27, 1.083333, 0.012058, 0.000000
 28, 1.125000, 0.026360, 0.000000
 29, 1.166667, 0.045000, 0.000000
 30, 1.208333, 0.066706, 0.000000
 31, 1.250000, 0.090000, 0.000000
 32, 1.291667, 0.113294, 0.000000
 33, 1.333333, 0.135000, 0.000000
 34, 1.375000, 0.153640, 0.000000
 35, 1.416667, 0.167942, 0.000000
 36, 1.458333, 0.176933, 0.000000
 37, 1.500000, 0.180000, 0.000000
 38, 1.541667, 0.176933, 0.000000
 39, 1.583333, 0.167942, 0.000000
 40, 1.625000, 0.153640, 0.000000
 41, 1.666667, 0.135000, 0.000000
 42, 1.708333, 0.113294, 0.000000
 43, 1.750000, 0.090000, 0.000000
 44, 1.791667, 0.066706, 0.000000
 45, 1.833333, 0.045000, 0.000000
 46, 1.875000, 0.026360, 0.000000
 47, 1.916667, 0.012058, 0.000000
 48, 1.958333, 0.003067, 0.000000
 49, 2.000000, 0.000000, 0.000000
 50, 2.041667, 0.003067, 0.000000
 51, 2.083333, 0.012058, 0.000000
 52, 2.125000, 0.026360, 0.000000
 53, 2.166667, 0.045000, 0.000000
 54, 2.208333, 0.066706, 0.000000
 55, 2.250000, 0.090000, 0.000000
 56, 2.291667, 0.113294, 0.000000
 57, 2.333333, 0.135000, 0.000000
 58, 2.375000, 0.153640, 0.000000
 59, 2.416667, 0.167942, 0.000000
 60, 2.458333, 0.176933, 0.000000
 61, 2.500000, 0.180000, 0.000000
 62, 2.541667, 0.176933, 0.000000
 63, 2.583333, 0.167942, 0.000000
 64, 2.625000, 0.153640, 0.000000
 65, 2.666667, 0.135000, 0.000000
 66, 2.708333, 0.113294, 0.000000
 67, 2.750000, 0.090000, 0.000000
 68, 2.791667, 0.066706, 0.000000
 69, 2.833333, 0.045000, 0.000000
 70, 2.875000, 0.026360, 0.000000
 71, 2.916667, 0.012058, 0.000000
 72, 2.958333, 0.003067, 0.000000
 73, 3.000000, 0.000000, 0.000000
 74, 0.000000, 0.083333, 0.000000
 75, 0.041667, 0.086400, 0.000000
 76, 0.083333, 0.095391, 0.000000
 77, 0.125000, 0.109694, 0.000000
 78, 0.166667, 0.128333, 0.000000
 79, 0.208333, 0.150040, 0.000000
 80, 0.250000, 0.173333, 0.000000
 81, 0.291667, 0.196627, 0.000000
 82, 0.333333, 0.218333, 0.000000
 83, 0.375000, 0.236973, 0.000000
 84, 0.416667, 0.251276, 0.000000
 85, 0.458333, 0.260267, 0.000000
 86, 0.500000, 0.263333, 0.000000
 87, 0.541667, 0.260267, 0.000000
 88, 0.583333, 0.251276, 0.000000
 89, 0.625000, 0.236973, 0.000000
 90, 0.666667, 0.218333, 0.000000
 91, 0.708333, 0.196627, 0.000000
 92, 0.750000, 0.173333, 0.000000
 93, 0.791667, 0.150040, 0.000000
 94, 0.833333, 0.128333, 0.000000
 95, 0.875000, 0.109694, 0.000000
 96, 0.916667, 0.095391, 0.000000
 97, 0.958333, 0.086400, 0.000000
 98, 1.000000, 0.083333, 0.000000
 99, 1.041667, 0.086400, 0.000000
 100, 1.083333, 0.095391, 0.000000
 101, 1.125000, 0.109694, 0.000000
 102, 1.166667, 0.128333, 0.000000
 103, 1.208333, 0.150040, 0.000000
 104, 1.250000, 0.173333, 0.000000
 105, 1.291667, 0.196627, 0.000000
 106, 1.333333, 0.218333, 0.000000
 107, 1.375000, 0.236973, 0.000000
 108, 1.416667, 0.251276, 0.000000
 109, 1.458333, 0.260267, 0.000000
 110, 1.500000, 0.263333, 0.000000
 111, 1.541667, 0.260267, 0.000000
 112, 1.583333, 0.251276, 0.000000
 113, 1.625000, 0.236973, 0.000000
 114, 1.666667, 0.218333, 0.000000
 115, 1.708333, 0.196627, 0.000000
 116, 1.750000, 0.173333, 0.000000
 117, 1.791667, 0.150040, 0.000000
 118, 1.833333, 0.128333, 0.000000
 119, 1.875000, 0.109694, 0.000000
 120, 1.916667, 0.095391, 0.000000
 121, 1.958333, 0.086400, 0.000000
 122, 2.000000, 0.083333, 0.000000
 123, 2.041667, 0.086400, 0.000000
 124, 2.083333, 0.095391, 0.000000
 125, 2.125000, 0.109694, 0.000000
 126, 2.166667, 0.128333, 0.000000
 127, 2.208333, 0.150040, 0.000000
 128, 2.250000, 0.173333, 0.000000
 129, 2.291667, 0.196627, 0.000000
 130, 2.333333, 0.218333, 0.000000
 131, 2.375000, 0.236973, 0.000000
 132, 2.416667, 0.251276, 0.000000
 133, 2.458333, 0.260267, 0.000000
 134, 2.500000, 0.263333, 0.000000
 135, 2.541667, 0.260267, 0.000000
 136, 2.583333, 0.251276, 0.000000
 137, 2.625000, 0.236973, 0.000000
 138, 2.666667, 0.218333, 0.000000
 139, 2.708333, 0.196627, 0.000000
 140, 2.750000, 0.173333, 0.000000
 141, 2.791667, 0.150040, 0.000000
 142, 2.833333, 0.128333, 0.000000
 143, 2.875000, 0.109694, 0.000000
 144, 2.916667, 0.095391, 0.000000
 145, 2.958333, 0.086400, 0.000000
 146, 3.000000, 0.083333, 0.000000
 147, 0.000000, 0.166667, 0.000000
 148, 0.041667, 0.169733, 0.000000
 149, 0.083333, 0.178724, 0.000000
 150, 0.125000, 0.193027, 0.000000
 151, 0.166667, 0.211667, 0.000000
 152, 0.208333, 0.233373, 0.000000
 153, 0.250000, 0.256667, 0.000000
 154, 0.291667, 0.279960, 0.000000
 155, 0.333333, 0.301667, 0.000000
 156, 0.375000, 0.320306, 0.000000
 157, 0.416667, 0.334609, 0.000000
 158, 0.458333, 0.343600, 0.000000
 159, 0.500000, 0.346667, 0.000000
 160, 0.541667, 0.343600, 0.000000
 161, 0.583333, 0.334609, 0.000000
 162, 0.625000, 0.320306, 0.000000
 163, 0.666667, 0.301667, 0.000000
 164, 0.708333, 0.279960, 0.000000
 165, 0.750000, 0.256667, 0.000000
 166, 0.791667, 0.233373, 0.000000
 167, 0.833333, 0.211667, 0.000000
 168, 0.875000, 0.193027, 0.000000
 169, 0.916667, 0.178724, 0.000000
 170, 0.958333, 0.169733, 0.000000
 171, 1.000000, 0.166667, 0.000000
 172, 1.041667, 0.169733, 0.000000
 173, 1.083333, 0.178724, 0.000000
 174, 1.125000, 0.193027, 0.000000
 175, 1.166667, 0.211667, 0.000000
 176, 1.208333, 0.233373, 0.000000
 177, 1.250000, 0.256667, 0.000000
 178, 1.291667, 0.279960, 0.000000
 179, 1.333333, 0.301667, 0.000000
 180, 1.375000, 0.320306, 0.000000
 181, 1.416667, 0.334609, 0.000000
 182, 1.458333, 0.343600, 0.000000
 183, 1.500000, 0.346667, 0.000000
 184, 1.541667, 0.343600, 0.000000
 185, 1.583333, 0.334609, 0.000000
 186, 1.625000, 0.320306, 0.000000
 187, 1.666667, 0.301667, 0.000000
 188, 1.708333, 0.279960, 0.000000
 189, 1.750000, 0.256667, 0.000000
 190, 1.791667, 0.233373, 0.000000
 191, 1.833333, 0.211667, 0.000000
 192, 1.875000, 0.193027, 0.000000
 193, 1.916667, 0.178724, 0.000000
 194, 1.958333, 0.169733, 0.000000
 195, 2.000000, 0.166667, 0.000000
 196, 2.041667, 0.169733, 0.000000
 197, 2.083333, 0.178724, 0.000000
 198, 2.125000, 0.193027, 0.000000
 199, 2.166667, 0.211667, 0.000000
 200, 2.208333, 0.233373, 0.000000
 201, 2.250000, 0.256667, 0.000000
 202, 2.291667, 0.279960, 0.000000
 203, 2.333333, 0.301667, 0.000000
 204, 2.375000, 0.320306, 0.000000
 205, 2.416667, 0.334609, 0.000000
 206, 2.458333, 0.343600, 0.000000
 207, 2.500000, 0.346667, 0.000000
 208, 2.541667, 0.343600, 0.000000
 209, 2.583333, 0.334609, 0.000000
 210, 2.625000, 0.320306, 0.000000
 211, 2.666667, 0.301667, 0.000000
 212, 2.708333, 0.279960, 0.000000
 213, 2.750000, 0.256667, 0.000000
 214, 2.791667, 0.233373, 0.000000
 215, 2.833333, 0.211667, 0.000000
 216, 2.875000, 0.193027, 0.000000
 217, 2.916667, 0.178724, 0.000000
 218, 2.958333, 0.169733, 0.000000
 219, 3.000000, 0.166667, 0.000000
 220, 0.000000, 0.250000, 0.000000
 221, 0.041667, 0.253067, 0.000000
 222, 0.083333, 0.262058, 0.000000
 223, 0.125000, 0.276360, 0.000000
 224, 0.166667, 0.295000, 0.000000
 225, 0.208333, 0.316706, 0.000000
 226, 0.250000, 0.340000, 0.000000
 227, 0.291667, 0.363294, 0.000000
 228, 0.333333, 0.385000, 0.000000
 229, 0.375000, 0.403640, 0.000000
 230, 0.416667, 0.417942, 0.000000
 231, 0.458333, 0.426933, 0.000000
 232, 0.500000, 0.430000, 0.000000
 233, 0.541667, 0.426933, 0.000000
 234, 0.583333, 0.417942, 0.000000
 235, 0.625000, 0.403640, 0.000000
 236, 0.666667, 0.385000, 0.000000
 237, 0.708333, 0.363294, 0.000000
 238, 0.750000, 0.340000, 0.000000
 239, 0.791667, 0.316706, 0.000000
 240, 0.833333, 0.295000, 0.000000
 241, 0.875000, 0.276360, 0.000000
 242, 0.916667, 0.262058, 0.000000
 243, 0.958333, 0.253067, 0.000000
 244, 1.000000, 0.250000, 0.000000
 245, 1.041667, 0.253067, 0.000000
 246, 1.083333, 0.262058, 0.000000
 247, 1.125000, 0.276360, 0.000000
 248, 1.166667, 0.295000, 0.000000
 249, 1.208333, 0.316706, 0.000000
 250, 1.250000, 0.340000, 0.000000
 251, 1.291667, 0.363294, 0.000000
 252, 1.333333, 0.385000, 0.000000
 253, 1.375000, 0.403640, 0.000000
 254, 1.416667, 0.417942, 0.000000
 255, 1.458333, 0.426933, 0.000000
 256, 1.500000, 0.430000, 0.000000
 257, 1.541667, 0.426933, 0.000000
 258, 1.583333, 0.417942, 0.000000
 259, 1.625000, 0.403640, 0.000000
 260, 1.666667, 0.385000, 0.000000
 261, 1.708333, 0.363294, 0.000000
 262, 1.750000, 0.340000, 0.000000
 263, 1.791667, 0.316706, 0.000000
 264, 1.833333, 0.295000, 0.000000
 265, 1.875000, 0.276360, 0.000000
 266, 1.916667, 0.262058, 0.000000
 267, 1.958333, 0.253067, 0.000000
 268, 2.000000, 0.250000, 0.000000
 269, 2.041667, 0.253067, 0.000000
 270, 2.083333, 0.262058, 0.000000
 271, 2.125000, 0.276360, 0.000000
 272, 2.166667, 0.295000, 0.000000
 273, 2.208333, 0.316706, 0.000000
 274, 2.250000, 0.340000, 0.000000
 275, 2.291667, 0.363294, 0.000000
 276, 2.333333, 0.385000, 0.000000
 277, 2.375000, 0.403640, 0.000000
 278, 2.416667, 0.417942, 0.000000
 279, 2.458333, 0.426933, 0.000000
 280, 2.500000, 0.430000, 0.000000
 281, 2.541667, 0.426933, 0.000000
 282, 2.583333, 0.417942, 0.000000
 283, 2.625000, 0.403640, 0.000000
 284, 2.666667, 0.385000, 0.000000
 285, 2.708333, 0.363294, 0.000000
 286, 2.750000, 0.340000, 0.000000
 287, 2.791667, 0.316706, 0.000000
 288, 2.833333, 0.295000, 0.000000
 289, 2.875000, 0.276360, 0.000000
 290, 2.916667, 0.262058, 0.000000
 291, 2.958333, 0.253067, 0.000000
 292, 3.000000, 0.250000, 0.000000
 293, 0.000000, 0.333333, 0.000000
 294, 0.041667, 0.336400, 0.000000
 295, 0.083333, 0.345391, 0.000000
 296, 0.125000, 0.359694, 0.000000
 297, 0.166667, 0.378333, 0.000000
 298, 0.208333, 0.400040, 0.000000
 299, 0.250000, 0.423333, 0.000000
 300, 0.291667, 0.446627, 0.000000
 301, 0.333333, 0.468333, 0.000000
 302, 0.375000, 0.486973, 0.000000
 303, 0.416667, 0.501276, 0.000000
 304, 0.458333, 0.510267, 0.000000
 305, 0.500000, 0.513333, 0.000000
 306, 0.541667, 0.510267, 0.000000
 307, 0.583333, 0.501276, 0.000000
 308, 0.625000, 0.486973, 0.000000
 309, 0.666667, 0.468333, 0.000000
 310, 0.708333, 0.446627, 0.000000
 311, 0.750000, 0.423333, 0.000000
 312, 0.791667, 0.400040, 0.000000
 313, 0.833333, 0.378333, 0.000000
 314, 0.875000, 0.359694, 0.000000
 315, 0.916667, 0.345391, 0.000000
 316, 0.958333, 0.336400, 0.000000
 317, 1.000000, 0.333333, 0.000000
 318, 1.041667, 0.336400, 0.000000
 319, 1.083333, 0.345391, 0.000000
 320, 1.125000, 0.359694, 0.000000
 321, 1.166667, 0.378333, 0.000000
 322, 1.208333, 0.400040, 0.000000
 323, 1.250000, 0.423333, 0.000000
 324, 1.291667, 0.446627, 0.000000
 325, 1.333333, 0.468333, 0.000000
 326, 1.375000, 0.486973, 0.000000
 327, 1.416667, 0.501276, 0.000000
 328, 1.458333, 0.510267, 0.000000
 329, 1.500000, 0.513333, 0.000000
 330, 1.541667, 0.510267, 0.000000
 331, 1.583333, 0.501276, 0.000000
 332, 1.625000, 0.486973, 0.000000
 333, 1.666667, 0.468333, 0.000000
 334, 1.708333, 0.446627, 0.000000
 335, 1.750000, 0.423333, 0.000000
 336, 1.791667, 0.400040, 0.000000
 337, 1.833333, 0.378333, 0.000000
 338, 1.875000, 0.359694, 0.000000
 339, 1.916667, 0.345391, 0.000000
 340, 1.958333, 0.336400, 0.000000
 341, 2.000000, 0.333333, 0.000000
 342, 2.041667, 0.336400, 0.000000
 343, 2.083333, 0.345391, 0.000000
 344, 2.125000, 0.359694, 0.000000
 345, 2.166667, 0.378333, 0.000000
 346, 2.208333, 0.400040, 0.000000
 347, 2.250000, 0.423333, 0.000000
 348, 2.291667, 0.446627, 0.000000
 349, 2.333333, 0.468333, 0.000000
 350, 2.375000, 0.486973, 0.000000
 351, 2.416667, 0.501276, 0.000000
 352, 2.458333, 0.510267, 0.000000
 353, 2.500000, 0.513333, 0.000000
 354, 2.541667, 0.510267, 0.000000
 355, 2.583333, 0.501276, 0.000000
 356, 2.625000, 0.486973, 0.000000
 357, 2.666667, 0.468333, 0.000000
 358, 2.708333, 0.446627, 0.000000
 359, 2.750000, 0.423333, 0.000000
 360, 2.791667, 0.400040, 0.000000
 361, 2.833333, 0.378333, 0.000000
 362, 2.875000, 0.359694, 0.000000
 363, 2.916667, 0.345391, 0.000000
 364, 2.958333, 0.336400, 0.000000
 365, 3.000000, 0.333333, 0.000000
 366, 0.000000, 0.416667, 0.000000
 367, 0.041667, 0.419733, 0.000000
 368, 0.083333, 0.428724, 0.000000
 369, 0.125000, 0.443027, 0.000000
 370, 0.166667, 0.461667, 0.000000
 371, 0.208333, 0.483373, 0.000000
 372, 0.250000, 0.506667, 0.000000
 373, 0.291667, 0.529960, 0.000000
 374, 0.333333, 0.551667, 0.000000
 375, 0.375000, 0.570306, 0.000000
 376, 0.416667, 0.584609, 0.000000
 377, 0.458333, 0.593600, 0.000000
 378, 0.500000, 0.596667, 0.000000
 379, 0.541667, 0.593600, 0.000000
 380, 0.583333, 0.584609, 0.000000
 381, 0.625000, 0.570306, 0.000000
 382, 0.666667, 0.551667, 0.000000
 383, 0.708333, 0.529960, 0.000000
 384, 0.750000, 0.506667, 0.000000
 385, 0.791667, 0.483373, 0.000000
 386, 0.833333, 0.461667, 0.000000
 387, 0.875000, 0.443027, 0.000000
 388, 0.916667, 0.428724, 0.000000
 389, 0.958333, 0.419733, 0.000000
 390, 1.000000, 0.416667, 0.000000
 391, 1.041667, 0.419733, 0.000000
 392, 1.083333, 0.428724, 0.000000
 393, 1.125000, 0.443027, 0.000000
 394, 1.166667, 0.461667, 0.000000
 395, 1.208333, 0.483373, 0.000000
 396, 1.250000, 0.506667, 0.000000
 397, 1.291667, 0.529960, 0.000000
 398, 1.333333, 0.551667, 0.000000
 399, 1.375000, 0.570306, 0.000000
 400, 1.416667, 0.584609, 0.000000
 401, 1.458333, 0.593600, 0.000000
 402, 1.500000, 0.596667, 0.000000
 403, 1.541667, 0.593600, 0.000000
 404, 1.583333, 0.584609, 0.000000
 405, 1.625000, 0.570306, 0.000000
 406, 1.666667, 0.551667, 0.000000
 407, 1.708333, 0.529960, 0.000000
 408, 1.750000, 0.506667, 0.000000
 409, 1.791667, 0.483373, 0.000000
 410, 1.833333, 0.461667, 0.000000
 411, 1.875000, 0.443027, 0.000000
 412, 1.916667, 0.428724, 0.000000
 413, 1.958333, 0.419733, 0.000000
 414, 2.000000, 0.416667, 0.000000
 415, 2.041667, 0.419733, 0.000000
 416, 2.083333, 0.428724, 0.000000
 417, 2.125000, 0.443027, 0.000000
 418, 2.166667, 0.461667, 0.000000
 419, 2.208333, 0.483373, 0.000000
 420, 2.250000, 0.506667, 0.000000
 421, 2.291667, 0.529960, 0.000000
 422, 2.333333, 0.551667, 0.000000
 423, 2.375000, 0.570306, 0.000000
 424, 2.416667, 0.584609, 0.000000
 425, 2.458333, 0.593600, 0.000000
 426, 2.500000, 0.596667, 0.000000
 427, 2.541667, 0.593600, 0.000000
 428, 2.583333, 0.584609, 0.000000
 429, 2.625000, 0.570306, 0.000000
 430, 2.666667, 0.551667, 0.000000
 431, 2.708333, 0.529960, 0.000000
 432, 2.750000, 0.506667, 0.000000
 433, 2.791667, 0.483373, 0.000000
 434, 2.833333, 0.461667, 0.000000
 435, 2.875000, 0.443027, 0.000000
 436, 2.916667, 0.428724, 0.000000
 437, 2.958333, 0.419733, 0.000000
 438, 3.000000, 0.416667, 0.000000
 439, 0.000000, 0.500000, 0.000000
 440, 0.041667, 0.503067, 0.000000
 441, 0.083333, 0.512058, 0.000000
 442, 0.125000, 0.526360, 0.000000
 443, 0.166667, 0.545000, 0.000000
 444, 0.208333, 0.566706, 0.000000
 445, 0.250000, 0.590000, 0.000000
 446, 0.291667, 0.613294, 0.000000
 447, 0.333333, 0.635000, 0.000000
 448, 0.375000, 0.653640, 0.000000
 449, 0.416667, 0.667942, 0.000000
 450, 0.458333, 0.676933, 0.000000
 451, 0.500000, 0.680000, 0.000000
 452, 0.541667, 0.676933, 0.000000
 453, 0.583333, 0.667942, 0.000000
 454, 0.625000, 0.653640, 0.000000
 455, 0.666667, 0.635000, 0.000000
 456, 0.708333, 0.613294, 0.000000
 457, 0.750000, 0.590000, 0.000000
 458, 0.791667, 0.566706, 0.000000
 459, 0.833333, 0.545000, 0.000000
 460, 0.875000, 0.526360, 0.000000
 461, 0.916667, 0.512058, 0.000000
 462, 0.958333, 0.503067, 0.000000
 463, 1.000000, 0.500000, 0.000000
 464, 1.041667, 0.503067, 0.000000
 465, 1.083333, 0.512058, 0.000000
 466, 1.125000, 0.526360, 0.000000
 467, 1.166667, 0.545000, 0.000000
 468, 1.208333, 0.566706, 0.000000
 469, 1.250000, 0.590000, 0.000000
 470, 1.291667, 0.613294, 0.000000
 471, 1.333333, 0.635000, 0.000000
 472, 1.375000, 0.653640, 0.000000
 473, 1.416667, 0.667942, 0.000000
 474, 1.458333, 0.676933, 0.000000
 475, 1.500000, 0.680000, 0.000000
 476, 1.541667, 0.676933, 0.000000
 477, 1.583333, 0.667942, 0.000000
 478, 1.625000, 0.653640, 0.000000
 479, 1.666667, 0.635000, 0.000000
 480, 1.708333, 0.613294, 0.000000
 481, 1.750000, 0.590000, 0.000000
 482, 1.791667, 0.566706, 0.000000
 483, 1.833333, 0.545000, 0.000000
 484, 1.875000, 0.526360, 0.000000
 485, 1.916667, 0.512058, 0.000000
 486, 1.958333, 0.503067, 0.000000
 487, 2.000000, 0.500000, 0.000000
 488, 2.041667, 0.503067, 0.000000
 489, 2.083333, 0.512058, 0.000000
 490, 2.125000, 0.526360, 0.000000
 491, 2.166667, 0.545000, 0.000000
 492, 2.208333, 0.566706, 0.000000
 493, 2.250000, 0.590000, 0.000000
 494, 2.291667, 0.613294, 0.000000
 495, 2.333333, 0.635000, 0.000000
 496, 2.375000, 0.653640, 0.000000
 497, 2.416667, 0.667942, 0.000000
 498, 2.458333, 0.676933, 0.000000
 499, 2.500000, 0.680000, 0.000000
 500, 2.541667, 0.676933, 0.000000
 501, 2.583333, 0.667942, 0.000000
 502, 2.625000, 0.653640, 0.000000
 503, 2.666667, 0.635000, 0.000000
 504, 2.708333, 0.613294, 0.000000
 505, 2.750000, 0.590000, 0.000000
 506, 2.791667, 0.566706, 0.000000
 507, 2.833333, 0.545000, 0.000000
 508, 2.875000, 0.526360, 0.000000
 509, 2.916667, 0.512058, 0.000000
 510, 2.958333, 0.503067, 0.000000
 511, 3.000000, 0.500000, 0.000000
 512, 0.000000, 0.583333, 0.000000
 513, 0.041667, 0.586400, 0.000000
 514, 0.083333, 0.595391, 0.000000
 515, 0.125000, 0.609694, 0.000000
 516, 0.166667, 0.628333, 0.000000
 517, 0.208333, 0.650040, 0.000000
 518, 0.250000, 0.673333, 0.000000
 519, 0.291667, 0.696627, 0.000000
 520, 0.333333, 0.718333, 0.000000
 521, 0.375000, 0.736973, 0.000000
 522, 0.416667, 0.751276, 0.000000
 523, 0.458333, 0.760267, 0.000000
 524, 0.500000, 0.763333, 0.000000
 525, 0.541667, 0.760267, 0.000000
 526, 0.583333, 0.751276, 0.000000
 527, 0.625000, 0.736973, 0.000000
 528, 0.666667, 0.718333, 0.000000
 529, 0.708333, 0.696627, 0.000000
 530, 0.750000, 0.673333, 0.000000
 531, 0.791667, 0.650040, 0.000000
 532, 0.833333, 0.628333, 0.000000
 533, 0.875000, 0.609694, 0.000000
 534, 0.916667, 0.595391, 0.000000
 535, 0.958333, 0.586400, 0.000000
 536, 1.000000, 0.583333, 0.000000
 537, 1.041667, 0.586400, 0.000000
 538, 1.083333, 0.595391, 0.000000
 539, 1.125000, 0.609694, 0.000000
 540, 1.166667, 0.628333, 0.000000
 541, 1.208333, 0.650040, 0.000000
 542, 1.250000, 0.673333, 0.000000
 543, 1.291667, 0.696627, 0.000000
 544, 1.333333, 0.718333, 0.000000
 545, 1.375000, 0.736973, 0.000000
 546, 1.416667, 0.751276, 0.000000
 547, 1.458333, 0.760267, 0.000000
 548, 1.500000, 0.763333, 0.000000
 549, 1.541667, 0.760267, 0.000000
 550, 1.583333, 0.751276, 0.000000
 551, 1.625000, 0.736973, 0.000000
 552, 1.666667, 0.718333, 0.000000
 553, 1.708333, 0.696627, 0.000000
 554, 1.750000, 0.673333, 0.000000
 555, 1.791667, 0.650040, 0.000000
 556, 1.833333, 0.628333, 0.000000
 557, 1.875000, 0.609694, 0.000000
 558, 1.916667, 0.595391, 0.000000
 559, 1.958333, 0.586400, 0.000000
 560, 2.000000, 0.583333, 0.000000
 561, 2.041667, 0.586400, 0.000000
 562, 2.083333, 0.595391, 0.000000
 563, 2.125000, 0.609694, 0.000000
 564, 2.166667, 0.628333, 0.000000
 565, 2.208333, 0.650040, 0.000000
 566, 2.250000, 0.673333, 0.000000
 567, 2.291667, 0.696627, 0.000000
 568, 2.333333, 0.718333, 0.000000
 569, 2.375000, 0.736973, 0.000000
 570, 2.416667, 0.751276, 0.000000
 571, 2.458333, 0.760267, 0.000000
 572, 2.500000, 0.763333, 0.000000
 573, 2.541667, 0.760267, 0.000000
 574, 2.583333, 0.751276, 0.000000
 575, 2.625000, 0.736973, 0.000000
 576, 2.666667, 0.718333, 0.000000
 577, 2.708333, 0.696627, 0.000000
 578, 2.750000, 0.673333, 0.000000
 579, 2.791667, 0.650040, 0.000000
 580, 2.833333, 0.628333, 0.000000
 581, 2.875000, 0.609694, 0.000000
 582, 2.916667, 0.595391, 0.000000
 583, 2.958333, 0.586400, 0.000000
 584, 3.000000, 0.583333, 0.000000
 585, 0.000000, 0.666667, 0.000000
 586, 0.041667, 0.669733, 0.000000
 587, 0.083333, 0.678724, 0.000000
 588, 0.125000, 0.693027, 0.000000
 589, 0.166667, 0.711667, 0.000000
 590, 0.208333, 0.733373, 0.000000
 591, 0.250000, 0.756667, 0.000000
 592, 0.291667, 0.779960, 0.000000
 593, 0.333333, 0.801667, 0.000000
 594, 0.375000, 0.820306, 0.000000
 595, 0.416667, 0.834609, 0.000000
 596, 0.458333, 0.843600, 0.000000
 597, 0.500000, 0.846667, 0.000000
 598, 0.541667, 0.843600, 0.000000
 599, 0.583333, 0.834609, 0.000000
 600, 0.625000, 0.820306, 0.000000
 601, 0.666667, 0.801667, 0.000000
 602, 0.708333, 0.779960, 0.000000
 603, 0.750000, 0.756667, 0.000000
 604, 0.791667, 0.733373, 0.000000
 605, 0.833333, 0.711667, 0.000000
 606, 0.875000, 0.693027, 0.000000
 607, 0.916667, 0.678724, 0.000000
 608, 0.958333, 0.669733, 0.000000
 609, 1.000000, 0.666667, 0.000000
 610, 1.041667, 0.669733, 0.000000
 611, 1.083333, 0.678724, 0.000000
 612, 1.125000, 0.693027, 0.000000
 613, 1.166667, 0.711667, 0.000000
 614, 1.208333, 0.733373, 0.000000
 615, 1.250000, 0.756667, 0.000000
 616, 1.291667, 0.779960, 0.000000
 617, 1.333333, 0.801667, 0.000000
 618, 1.375000, 0.820306, 0.000000
 619, 1.416667, 0.834609, 0.000000
 620, 1.458333, 0.843600, 0.000000
 621, 1.500000, 0.846667, 0.000000
 622, 1.541667, 0.843600, 0.000000
 623, 1.583333, 0.834609, 0.000000
 624, 1.625000, 0.820306, 0.000000
 625, 1.666667, 0.801667, 0.000000
 626, 1.708333, 0.779960, 0.000000
 627, 1.750000, 0.756667, 0.000000
 628, 1.791667, 0.733373, 0.000000
 629, 1.833333, 0.711667, 0.000000
 630, 1.875000, 0.693027, 0.000000
 631, 1.916667, 0.678724, 0.000000
 632, 1.958333, 0.669733, 0.000000
 633, 2.000000, 0.666667, 0.000000
 634, 2.041667, 0.669733, 0.000000
 635, 2.083333, 0.678724, 0.000000
 636, 2.125000, 0.693027, 0.000000
 637, 2.166667, 0.711667, 0.000000
 638, 2.208333, 0.733373, 0.000000
 639, 2.250000, 0.756667, 0.000000
 640, 2.291667, 0.779960, 0.000000
 641, 2.333333, 0.801667, 0.000000
 642, 2.375000, 0.820306, 0.000000
 643, 2.416667, 0.834609, 0.000000
 644, 2.458333, 0.843600, 0.000000
 645, 2.500000, 0.846667, 0.000000
 646, 2.541667, 0.843600, 0.000000
 647, 2.583333, 0.834609, 0.000000
 648, 2.625000, 0.820306, 0.000000
 649, 2.666667, 0.801667, 0.000000
 650, 2.708333, 0.779960, 0.000000
 651, 2.750000, 0.756667, 0.000000
 652, 2.791667, 0.733373, 0.000000
 653, 2.833333, 0.711667, 0.000000
 654, 2.875000, 0.693027, 0.000000
 655, 2.916667, 0.678724, 0.000000
 656, 2.958333, 0.669733, 0.000000
 657, 3.000000, 0.666667, 0.000000
 658, 0.000000, 0.750000, 0.000000
 659, 0.041667, 0.753067, 0.000000
 660, 0.083333, 0.762058, 0.000000
 661, 0.125000, 0.776360, 0.000000
 662, 0.166667, 0.795000, 0.000000
 663, 0.208333, 0.816706, 0.000000
 664, 0.250000, 0.840000, 0.000000
 665, 0.291667, 0.863294, 0.000000
 666, 0.333333, 0.885000, 0.000000
 667, 0.375000, 0.903640, 0.000000
 668, 0.416667, 0.917942, 0.000000
 669, 0.458333, 0.926933, 0.000000
 670, 0.500000, 0.930000, 0.000000
 671, 0.541667, 0.926933, 0.000000
 672, 0.583333, 0.917942, 0.000000
 673, 0.625000, 0.903640, 0.000000
 674, 0.666667, 0.885000, 0.000000
 675, 0.708333, 0.863294, 0.000000
 676, 0.750000, 0.840000, 0.000000
 677, 0.791667, 0.816706, 0.000000
 678, 0.833333, 0.795000, 0.000000
 679, 0.875000, 0.776360, 0.000000
 680, 0.916667, 0.762058, 0.000000
 681, 0.958333, 0.753067, 0.000000
 682, 1.000000, 0.750000, 0.000000
 683, 1.041667, 0.753067, 0.000000
 684, 1.083333, 0.762058, 0.000000
 685, 1.125000, 0.776360, 0.000000
 686, 1.166667, 0.795000, 0.000000
 687, 1.208333, 0.816706, 0.000000
 688, 1.250000, 0.840000, 0.000000
 689, 1.291667, 0.863294, 0.000000
 690, 1.333333, 0.885000, 0.000000
 691, 1.375000, 0.903640, 0.000000
 692, 1.416667, 0.917942, 0.000000
 693, 1.458333, 0.926933, 0.000000
 694, 1.500000, 0.930000, 0.000000
 695, 1.541667, 0.926933, 0.000000
 696, 1.583333, 0.917942, 0.000000
 697, 1.625000, 0.903640, 0.000000
 698, 1.666667, 0.885000, 0.000000
 699, 1.708333, 0.863294, 0.000000
 700, 1.750000, 0.840000, 0.000000
 701, 1.791667, 0.816706, 0.000000
 702, 1.833333, 0.795000, 0.000000
 703, 1.875000, 0.776360, 0.000000
 704, 1.916667, 0.762058, 0.000000
 705, 1.958333, 0.753067, 0.000000
 706, 2.000000, 0.750000, 0.000000
 707, 2.041667, 0.753067, 0.000000
 708, 2.083333, 0.762058, 0.000000
 709, 2.125000, 0.776360, 0.000000
 710, 2.166667, 0.795000, 0.000000
 711, 2.208333, 0.816706, 0.000000
 712, 2.250000, 0.840000, 0.000000
 713, 2.291667, 0.863294, 0.000000
 714, 2.333333, 0.885000, 0.000000
 715, 2.375000, 0.903640, 0.000000
 716, 2.416667, 0.917942, 0.000000
 717, 2.458333, 0.926933, 0.000000
 718, 2.500000, 0.930000, 0.000000
 719, 2.541667, 0.926933, 0.000000
 720, 2.583333, 0.917942, 0.000000
 721, 2.625000, 0.903640, 0.000000
 722, 2.666667, 0.885000, 0.000000
 723, 2.708333, 0.863294, 0.000000
 724, 2.750000, 0.840000, 0.000000
 725, 2.791667, 0.816706, 0.000000
 726, 2.833333, 0.795000, 0.000000
 727, 2.875000, 0.776360, 0.000000
 728, 2.916667, 0.762058, 0.000000
 729, 2.958333, 0.753067, 0.000000
 730, 3.000000, 0.750000, 0.000000
 731, 0.000000, 0.833333, 0.000000
 732, 0.041667, 0.836400, 0.000000
 733, 0.083333, 0.845391, 0.000000
 734, 0.125000, 0.859694, 0.000000
 735, 0.166667, 0.878333, 0.000000
 736, 0.208333, 0.900040, 0.000000
 737, 0.250000, 0.923333, 0.000000
 738, 0.291667, 0.946627, 0.000000
 739, 0.333333, 0.968333, 0.000000
 740, 0.375000, 0.986973, 0.000000
 741, 0.416667, 1.001276, 0.000000
 742, 0.458333, 1.010267, 0.000000
 743, 0.500000, 1.013333, 0.000000
 744, 0.541667, 1.010267, 0.000000
 745, 0.583333, 1.001276, 0.000000
 746, 0.625000, 0.986973, 0.000000
 747, 0.666667, 0.968333, 0.000000
 748, 0.708333, 0.946627, 0.000000
 749, 0.750000, 0.923333, 0.000000
 750, 0.791667, 0.900040, 0.000000
 751, 0.833333, 0.878333, 0.000000
 752, 0.875000, 0.859694, 0.000000
 753, 0.916667, 0.845391, 0.000000
 754, 0.958333, 0.836400, 0.000000
 755, 1.000000, 0.833333, 0.000000
 756, 1.041667, 0.836400, 0.000000
 757, 1.083333, 0.845391, 0.000000
 758, 1.125000, 0.859694, 0.000000
 759, 1.166667, 0.878333, 0.000000
 760, 1.208333, 0.900040, 0.000000
 761, 1.250000, 0.923333, 0.000000
 762, 1.291667, 0.946627, 0.000000
 763, 1.333333, 0.968333, 0.000000
 764, 1.375000, 0.986973, 0.000000
 765, 1.416667, 1.001276, 0.000000
 766, 1.458333, 1.010267, 0.000000
 767, 1.500000, 1.013333, 0.000000
 768, 1.541667, 1.010267, 0.000000
 769, 1.583333, 1.001276, 0.000000
 770, 1.625000, 0.986973, 0.000000
 771, 1.666667, 0.968333, 0.000000
 772, 1.708333, 0.946627, 0.000000
 773, 1.750000, 0.923333, 0.000000
 774, 1.791667, 0.900040, 0.000000
 775, 1.833333, 0.878333, 0.000000
 776, 1.875000, 0.859694, 0.000000
 777, 1.916667, 0.845391, 0.000000
 778, 1.958333, 0.836400, 0.000000
 779, 2.000000, 0.833333, 0.000000
 780, 2.041667, 0.836400, 0.000000
 781, 2.083333, 0.845391, 0.000000
 782, 2.125000, 0.859694, 0.000000
 783, 2.166667, 0.878333, 0.000000
 784, 2.208333, 0.900040, 0.000000
 785, 2.250000, 0.923333, 0.000000
 786, 2.291667, 0.946627, 0.000000
 787, 2.333333, 0.968333, 0.000000
 788, 2.375000, 0.986973, 0.000000
 789, 2.416667, 1.001276, 0.000000
 790, 2.458333, 1.010267, 0.000000
 791, 2.500000, 1.013333, 0.000000
 792, 2.541667, 1.010267, 0.000000
 793, 2.583333, 1.001276, 0.000000
 794, 2.625000, 0.986973, 0.000000
 795, 2.666667, 0.968333, 0.000000
 796, 2.708333, 0.946627, 0.000000
 797, 2.750000, 0.923333, 0.000000
 798, 2.791667, 0.900040, 0.000000
 799, 2.833333, 0.878333, 0.000000
 800, 2.875000, 0.859694, 0.000000
 801, 2.916667, 0.845391, 0.000000
 802, 2.958333, 0.836400, 0.000000
 803, 3.000000, 0.833333, 0.000000
 804, 0.000000, 0.916667, 0.000000
 805, 0.041667, 0.919733, 0.000000
 806, 0.083333, 0.928724, 0.000000
 807, 0.125000, 0.943027, 0.000000
 808, 0.166667, 0.961667, 0.000000
 809, 0.208333, 0.983373, 0.000000
 810, 0.250000, 1.006667, 0.000000
 811, 0.291667, 1.029960, 0.000000
 812, 0.333333, 1.051667, 0.000000
 813, 0.375000, 1.070306, 0.000000
 814, 0.416667, 1.084609, 0.000000
 815, 0.458333, 1.093600, 0.000000
 816, 0.500000, 1.096667, 0.000000
 817, 0.541667, 1.093600, 0.000000
 818, 0.583333, 1.084609, 0.000000
 819, 0.625000, 1.070306, 0.000000
 820, 0.666667, 1.051667, 0.000000
 821, 0.708333, 1.029960, 0.000000
 822, 0.750000, 1.006667, 0.000000
 823, 0.791667, 0.983373, 0.000000
 824, 0.833333, 0.961667, 0.000000
 825, 0.875000, 0.943027, 0.000000
 826, 0.916667, 0.928724, 0.000000
 827, 0.958333, 0.919733, 0.000000
 828, 1.000000, 0.916667, 0.000000
 829, 1.041667, 0.919733, 0.000000
 830, 1.083333, 0.928724, 0.000000
 831, 1.125000, 0.943027, 0.000000
 832, 1.166667, 0.961667, 0.000000
 833, 1.208333, 0.983373, 0.000000
 834, 1.250000, 1.006667, 0.000000
 835, 1.291667, 1.029960, 0.000000
 836, 1.333333, 1.051667, 0.000000
 837, 1.375000, 1.070306, 0.000000
 838, 1.416667, 1.084609, 0.000000
 839, 1.458333, 1.093600, 0.000000
 840, 1.500000, 1.096667, 0.000000
 841, 1.541667, 1.093600, 0.000000
 842, 1.583333, 1.084609, 0.000000
 843, 1.625000, 1.070306, 0.000000
 844, 1.666667, 1.051667, 0.000000
 845, 1.708333, 1.029960, 0.000000
 846, 1.750000, 1.006667, 0.000000
 847, 1.791667, 0.983373, 0.000000
 848, 1.833333, 0.961667, 0.000000
 849, 1.875000, 0.943027, 0.000000
 850, 1.916667, 0.928724, 0.000000
 851, 1.958333, 0.919733, 0.000000
 852, 2.000000, 0.916667, 0.000000
 853, 2.041667, 0.919733, 0.000000
 854, 2.083333, 0.928724, 0.000000
 855, 2.125000, 0.943027, 0.000000
 856, 2.166667, 0.961667, 0.000000
 857, 2.208333, 0.983373, 0.000000
 858, 2.250000, 1.006667, 0.000000
 859, 2.291667, 1.029960, 0.000000
 860, 2.333333, 1.051667, 0.000000
 861, 2.375000, 1.070306, 0.000000
 862, 2.416667, 1.084609, 0.000000
 863, 2.458333, 1.093600, 0.000000
 864, 2.500000, 1.096667, 0.000000
 865, 2.541667, 1.093600, 0.000000
 866, 2.583333, 1.084609, 0.000000
 867, 2.625000, 1.070306, 0.000000
 868, 2.666667, 1.051667, 0.000000
 869, 2.708333, 1.029960, 0.000000
 870, 2.750000, 1.006667, 0.000000
 871, 2.791667, 0.983373, 0.000000
 872, 2.833333, 0.961667, 0.000000
 873, 2.875000, 0.943027, 0.000000
 874, 2.916667, 0.928724, 0.000000
 875, 2.958333, 0.919733, 0.000000
 876, 3.000000, 0.916667, 0.000000
 877, 0.000000, 1.000000, 0.000000
 878, 0.041667, 1.003067, 0.000000
 879, 0.083333, 1.012058, 0.000000
 880, 0.125000, 1.026360, 0.000000
 881, 0.166667, 1.045000, 0.000000
 882, 0.208333, 1.066706, 0.000000
 883, 0.250000, 1.090000, 0.000000
 884, 0.291667, 1.113294, 0.000000
 885, 0.333333, 1.135000, 0.000000
 886, 0.375000, 1.153640, 0.000000
 887, 0.416667, 1.167942, 0.000000
 888, 0.458333, 1.176933, 0.000000
 889, 0.500000, 1.180000, 0.000000
 890, 0.541667, 1.176933, 0.000000
 891, 0.583333, 1.167942, 0.000000
 892, 0.625000, 1.153640, 0.000000
 893, 0.666667, 1.135000, 0.000000
 894, 0.708333, 1.113294, 0.000000
 895, 0.750000, 1.090000, 0.000000
 896, 0.791667, 1.066706, 0.000000
 897, 0.833333, 1.045000, 0.000000
 898, 0.875000, 1.026360, 0.000000
 899, 0.916667, 1.012058, 0.000000
 900, 0.958333, 1.003067, 0.000000
 901, 1.000000, 1.000000, 0.000000
 902, 1.041667, 1.003067, 0.000000
 903, 1.083333, 1.012058, 0.000000
 904, 1.125000, 1.026360, 0.000000
 905, 1.166667, 1.045000, 0.000000
 906, 1.208333, 1.066706, 0.000000
 907, 1.250000, 1.090000, 0.000000
 908, 1.291667, 1.113294, 0.000000
 909, 1.333333, 1.135000, 0.000000
 910, 1.375000, 1.153640, 0.000000
 911, 1.416667, 1.167942, 0.000000
 912, 1.458333, 1.176933, 0.000000
 913, 1.500000, 1.180000, 0.000000
 914, 1.541667, 1.176933, 0.000000
 915, 1.583333, 1.167942, 0.000000
 916, 1.625000, 1.153640, 0.000000
 917, 1.666667, 1.135000, 0.000000
 918, 1.708333, 1.113294, 0.000000
 919, 1.750000, 1.090000, 0.000000
 920, 1.791667, 1.066706, 0.000000
 921, 1.833333, 1.045000, 0.000000
 922, 1.875000, 1.026360, 0.000000
 923, 1.916667, 1.012058, 0.000000
 924, 1.958333, 1.003067, 0.000000
 925, 2.000000, 1.000000, 0.000000
 926, 2.041667, 1.003067, 0.000000
 927, 2.083333, 1.012058, 0.000000
 928, 2.125000, 1.026360, 0.000000
 929, 2.166667, 1.045000, 0.000000
 930, 2.208333, 1.066706, 0.000000
 931, 2.250000, 1.090000, 0.000000
 932, 2.291667, 1.113294, 0.000000
 933, 2.333333, 1.135000, 0.000000
 934, 2.375000, 1.153640, 0.000000
 935, 2.416667, 1.167942, 0.000000
 936, 2.458333, 1.176933, 0.000000
 937, 2.500000, 1.180000, 0.000000
 938, 2.541667, 1.176933, 0.000000
 939, 2.583333, 1.167942, 0.000000
 940, 2.625000, 1.153640, 0.000000
 941, 2.666667, 1.135000, 0.000000
 942, 2.708333, 1.113294, 0.000000
 943, 2.750000, 1.090000, 0.000000
 944, 2.791667, 1.066706, 0.000000
 945, 2.833333, 1.045000, 0.000000
 946, 2.875000, 1.026360, 0.000000
 947, 2.916667, 1.012058, 0.000000
 948, 2.958333, 1.003067, 0.000000
 949, 3.000000, 1.000000, 0.000000
 950, 0.000000, 0.000000, 0.100000
 951, 0.041667, 0.003067, 0.100000
 952, 0.083333, 0.012058, 0.100000
 953, 0.125000, 0.026360, 0.100000
 954, 0.166667, 0.045000, 0.100000
 955, 0.208333, 0.066706, 0.100000
 956, 0.250000, 0.090000, 0.100000
 957, 0.291667, 0.113294, 0.100000
 958, 0.333333, 0.135000, 0.100000
 959, 0.375000, 0.153640, 0.100000
 960, 0.416667, 0.167942, 0.100000
 961, 0.458333, 0.176933, 0.100000
 962, 0.500000, 0.180000, 0.100000
 963, 0.541667, 0.176933, 0.100000
 964, 0.583333, 0.167942, 0.100000
 965, 0.625000, 0.153640, 0.100000
 966, 0.666667, 0.135000, 0.100000
 967, 0.708333, 0.113294, 0.100000
 968, 0.750000, 0.090000, 0.100000
 969, 0.791667, 0.066706, 0.100000
 970, 0.833333, 0.045000, 0.100000
 971, 0.875000, 0.026360, 0.100000
 972, 0.916667, 0.012058, 0.100000
 973, 0.958333, 0.003067, 0.100000
 974, 1.000000, 0.000000, 0.100000
 975, 1.041667, 0.003067, 0.100000
 976, 1.083333, 0.012058, 0.100000
 977, 1.125000, 0.026360, 0.100000
 978, 1.166667, 0.045000, 0.100000
 979, 1.208333, 0.066706, 0.100000
 980, 1.250000, 0.090000, 0.100000
 981, 1.291667, 0.113294, 0.100000
 982, 1.333333, 0.135000, 0.100000
 983, 1.375000, 0.153640, 0.100000
 984, 1.416667, 0.167942, 0.100000
 985, 1.458333, 0.176933, 0.100000
 986, 1.500000, 0.180000, 0.100000
 987, 1.541667, 0.176933, 0.100000
 988, 1.583333, 0.167942, 0.100000
 989, 1.625000, 0.153640, 0.100000
 990, 1.666667, 0.135000, 0.100000
 991, 1.708333, 0.113294, 0.100000
 992, 1.750000, 0.090000, 0.100000
 993, 1.791667, 0.066706, 0.100000
 994, 1.833333, 0.045000, 0.100000
 995, 1.875000, 0.026360, 0.100000
 996, 1.916667, 0.012058, 0.100000
 997, 1.958333, 0.003067, 0.100000
 998, 2.000000, 0.000000, 0.100000
 999, 2.041667, 0.003067, 0.100000
 1000, 2.083333, 0.012058, 0.100000
 1001, 2.125000, 0.026360, 0.100000
 1002, 2.166667, 0.045000, 0.100000
 1003, 2.208333, 0.066706, 0.100000
 1004, 2.250000, 0.090000, 0.100000
 1005, 2.291667, 0.113294, 0.100000
 1006, 2.333333, 0.135000, 0.100000
 1007, 2.375000, 0.153640, 0.100000
 1008, 2.416667, 0.167942, 0.100000
 1009, 2.458333, 0.176933, 0.100000
 1010, 2.500000, 0.180000, 0.100000
 1011, 2.541667, 0.176933, 0.100000
 1012, 2.583333, 0.167942, 0.100000
 1013, 2.625000, 0.153640, 0.100000
 1014, 2.666667, 0.135000, 0.100000
 1015, 2.708333, 0.113294, 0.100000
 1016, 2.750000, 0.090000, 0.100000
 1017, 2.791667, 0.066706, 0.100000
 1018, 2.833333, 0.045000, 0.100000
 1019, 2.875000, 0.026360, 0.100000
 1020, 2.916667, 0.012058, 0.100000
 1021, 2.958333, 0.003067, 0.100000
 1022, 3.000000, 0.000000, 0.100000
 1023, 0.000000, 0.083333, 0.100000
 1024, 0.041667, 0.086400, 0.100000
 1025, 0.083333, 0.095391, 0.100000
 1026, 0.125000, 0.109694, 0.100000
 1027, 0.166667, 0.128333, 0.100000
 1028, 0.208333, 0.150040, 0.100000
 1029, 0.250000, 0.173333, 0.100000
 1030, 0.291667, 0.196627, 0.100000
 1031, 0.333333, 0.218333, 0.100000
 1032, 0.375000, 0.236973, 0.100000
 1033, 0.416667, 0.251276, 0.100000
 1034, 0.458333, 0.260267, 0.100000
 1035, 0.500000, 0.263333, 0.100000
 1036, 0.541667, 0.260267, 0.100000
 1037, 0.583333, 0.251276, 0.100000
 1038, 0.625000, 0.236973, 0.100000
 1039, 0.666667, 0.218333, 0.100000
 1040, 0.708333, 0.196627, 0.100000
 1041, 0.750000, 0.173333, 0.100000
 1042, 0.791667, 0.150040, 0.100000
 1043, 0.833333, 0.128333, 0.100000
 1044, 0.875000, 0.109694, 0.100000
 1045, 0.916667, 0.095391, 0.100000
 1046, 0.958333, 0.086400, 0.100000
 1047, 1.000000, 0.083333, 0.100000
 1048, 1.041667, 0.086400, 0.100000
 1049, 1.083333, 0.095391, 0.100000
 1050, 1.125000, 0.109694, 0.100000
 1051, 1.166667, 0.128333, 0.100000
 1052, 1.208333, 0.150040, 0.100000
 1053, 1.250000, 0.173333, 0.100000
 1054, 1.291667, 0.196627, 0.100000
 1055, 1.333333, 0.218333, 0.100000
 1056, 1.375000, 0.236973, 0.100000
 1057, 1.416667, 0.251276, 0.100000
 1058, 1.458333, 0.260267, 0.100000
 1059, 1.500000, 0.263333, 0.100000
 1060, 1.541667, 0.260267, 0.100000
 1061, 1.583333, 0.251276, 0.100000
 1062, 1.625000, 0.236973, 0.100000
 1063, 1.666667, 0.218333, 0.100000
 1064, 1.708333, 0.196627, 0.100000
 1065, 1.750000, 0.173333, 0.100000
 1066, 1.791667, 0.150040, 0.100000
 1067, 1.833333, 0.128333, 0.100000
 1068, 1.875000, 0.109694, 0.100000
 1069, 1.916667, 0.095391, 0.100000
 1070, 1.958333, 0.086400, 0.100000
 1071, 2.000000, 0.083333, 0.100000
 1072, 2.041667, 0.086400, 0.100000
 1073, 2.083333, 0.095391, 0.100000
 1074, 2.125000, 0.109694, 0.100000
 1075, 2.166667, 0.128333, 0.100000
 1076, 2.208333, 0.150040, 0.100000
 1077, 2.250000, 0.173333, 0.100000
 1078, 2.291667, 0.196627, 0.100000
 1079, 2.333333, 0.218333, 0.100000
 1080, 2.375000, 0.236973, 0.100000
 1081, 2.416667, 0.251276, 0.100000
 1082, 2.458333, 0.260267, 0.100000
 1083, 2.500000, 0.263333, 0.100000
 1084, 2.541667, 0.260267, 0.100000
 1085, 2.583333, 0.251276, 0.100000
 1086, 2.625000, 0.236973, 0.100000
 1087, 2.666667, 0.218333, 0.100000
 1088, 2.708333, 0.196627, 0.100000
 1089, 2.750000, 0.173333, 0.100000
 1090, 2.791667, 0.150040, 0.100000
 1091, 2.833333, 0.128333, 0.100000
 1092, 2.875000, 0.109694, 0.100000
 1093, 2.916667, 0.095391, 0.100000
 1094, 2.958333, 0.086400, 0.100000
 1095, 3.000000, 0.083333, 0.100000
 1096, 0.000000, 0.166667, 0.100000
 1097, 0.041667, 0.169733, 0.100000
 1098, 0.083333, 0.178724, 0.100000
 1099, 0.125000, 0.193027, 0.100000
 1100, 0.166667, 0.211667, 0.100000
 1101, 0.208333, 0.233373, 0.100000
 1102, 0.250000, 0.256667, 0.100000
 1103, 0.291667, 0.279960, 0.100000
 1104, 0.333333, 0.301667, 0.100000
 1105, 0.375000, 0.320306, 0.100000
 1106, 0.416667, 0.334609, 0.100000
 1107, 0.458333, 0.343600, 0.100000
 1108, 0.500000, 0.346667, 0.100000
 1109, 0.541667, 0.343600, 0.100000
 1110, 0.583333, 0.334609, 0.100000
 1111, 0.625000, 0.320306, 0.100000
 1112, 0.666667, 0.301667, 0.100000
 1113, 0.708333, 0.279960, 0.100000
 1114, 0.750000, 0.256667, 0.100000
 1115, 0.791667, 0.233373, 0.100000
 1116, 0.833333, 0.211667, 0.100000
 1117, 0.875000, 0.193027, 0.100000
 1118, 0.916667, 0.178724, 0.100000
 1119, 0.958333, 0.169733, 0.100000
 1120, 1.000000, 0.166667, 0.100000
 1121, 1.041667, 0.169733, 0.100000
 1122, 1.083333, 0.178724, 0.100000
 1123, 1.125000, 0.193027, 0.100000
 1124, 1.166667, 0.211667, 0.100000
 1125, 1.208333, 0.233373, 0.100000
 1126, 1.250000, 0.256667, 0.100000
 1127, 1.291667, 0.279960, 0.100000
 1128, 1.333333, 0.301667, 0.100000
 1129, 1.375000, 0.320306, 0.100000
 1130, 1.416667, 0.334609, 0.100000
 1131, 1.458333, 0.343600, 0.100000
 1132, 1.500000, 0.346667, 0.100000
 1133, 1.541667, 0.343600, 0.100000
 1134, 1.583333, 0.334609, 0.100000
 1135, 1.625000, 0.320306, 0.100000
 1136, 1.666667, 0.301667, 0.100000
 1137, 1.708333, 0.279960, 0.100000
 1138, 1.750000, 0.256667, 0.100000
 1139, 1.791667, 0.233373, 0.100000
 1140, 1.833333, 0.211667, 0.100000
 1141, 1.875000, 0.193027, 0.100000
 1142, 1.916667, 0.178724, 0.100000
 1143, 1.958333, 0.169733, 0.100000
 1144, 2.000000, 0.166667, 0.100000
 1145, 2.041667, 0.169733, 0.100000
 1146, 2.083333, 0.178724, 0.100000
 1147, 2.125000, 0.193027, 0.100000
 1148, 2.166667, 0.211667, 0.100000
 1149, 2.208333, 0.233373, 0.100000
 1150, 2.250000, 0.256667, 0.100000
 1151, 2.291667, 0.279960, 0.100000
 1152, 2.333333, 0.301667, 0.100000
 1153, 2.375000, 0.320306, 0.100000
 1154, 2.416667, 0.334609, 0.100000
 1155, 2.458333, 0.343600, 0.100000
 1156, 2.500000, 0.346667, 0.100000
 1157, 2.541667, 0.343600, 0.100000
 1158, 2.583333, 0.334609, 0.100000
 1159, 2.625000, 0.320306, 0.100000
 1160, 2.666667, 0.301667, 0.100000
 1161, 2.708333, 0.279960, 0.100000
 1162, 2.750000, 0.256667, 0.100000
 1163, 2.791667, 0.233373, 0.100000
 1164, 2.833333, 0.211667, 0.100000
 1165, 2.875000, 0.193027, 0.100000
 1166, 2.916667, 0.178724, 0.100000
 1167, 2.958333, 0.169733, 0.100000
 1168, 3.000000, 0.166667, 0.100000
 1169, 0.000000, 0.250000, 0.100000
 1170, 0.041667, 0.253067, 0.100000
 1171, 0.083333, 0.262058, 0.100000
 1172, 0.125000, 0.276360, 0.100000
 1173, 0.166667, 0.295000, 0.100000
 1174, 0.208333, 0.316706, 0.100000
 1175, 0.250000, 0.340000, 0.100000
 1176, 0.291667, 0.363294, 0.100000
 1177, 0.333333, 0.385000, 0.100000
 1178, 0.375000, 0.403640, 0.100000
 1179, 0.416667, 0.417942, 0.100000
 1180, 0.458333, 0.426933, 0.100000
 1181, 0.500000, 0.430000, 0.100000
 1182, 0.541667, 0.426933, 0.100000
 1183, 0.583333, 0.417942, 0.100000
 1184, 0.625000, 0.403640, 0.100000
 1185, 0.666667, 0.385000, 0.100000
 1186, 0.708333, 0.363294, 0.100000
 1187, 0.750000, 0.340000, 0.100000
 1188, 0.791667, 0.316706, 0.100000
 1189, 0.833333, 0.295000, 0.100000
 1190, 0.875000, 0.276360, 0.100000
 1191, 0.916667, 0.262058, 0.100000
 1192, 0.958333, 0.253067, 0.100000
 1193, 1.000000, 0.250000, 0.100000
 1194, 1.041667, 0.253067, 0.100000
 1195, 1.083333, 0.262058, 0.100000
 1196, 1.125000, 0.276360, 0.100000
 1197, 1.166667, 0.295000, 0.100000
 1198, 1.208333, 0.316706, 0.100000
 1199, 1.250000, 0.340000, 0.100000
 1200, 1.291667, 0.363294, 0.100000
 1201, 1.333333, 0.385000, 0.100000
 1202, 1.375000, 0.403640, 0.100000
 1203, 1.416667, 0.417942, 0.100000
 1204, 1.458333, 0.426933, 0.100000
 1205, 1.500000, 0.430000, 0.100000
 1206, 1.541667, 0.426933, 0.100000
 1207, 1.583333, 0.417942, 0.100000
 1208, 1.625000, 0.403640, 0.100000
 1209, 1.666667, 0.385000, 0.100000
 1210, 1.708333, 0.363294, 0.100000
 1211, 1.750000, 0.340000, 0.100000
 1212, 1.791667, 0.316706, 0.100000
 1213, 1.833333, 0.295000, 0.100000
 1214, 1.875000, 0.276360, 0.100000
 1215, 1.916667, 0.262058, 0.100000
 1216, 1.958333, 0.253067, 0.100000
 1217, 2.000000, 0.250000, 0.100000
 1218, 2.041667, 0.253067, 0.100000
 1219, 2.083333, 0.262058, 0.100000
 1220, 2.125000, 0.276360, 0.100000
 1221, 2.166667, 0.295000, 0.100000
 1222, 2.208333, 0.316706, 0.100000
 1223, 2.250000, 0.340000, 0.100000
 1224, 2.291667, 0.363294, 0.100000
 1225, 2.333333, 0.385000, 0.100000
 1226, 2.375000, 0.403640, 0.100000
 1227, 2.416667, 0.417942, 0.100000
 1228, 2.458333, 0.426933, 0.100000
 1229, 2.500000, 0.430000, 0.100000
 1230, 2.541667, 0.426933, 0.100000
 1231, 2.583333, 0.417942, 0.100000
 1232, 2.625000, 0.403640, 0.100000
 1233, 2.666667, 0.385000, 0.100000
 1234, 2.708333, 0.363294, 0.100000
 1235, 2.750000, 0.340000, 0.100000
 1236, 2.791667, 0.316706, 0.100000
 1237, 2.833333, 0.295000, 0.100000
 1238, 2.875000, 0.276360, 0.100000
 1239, 2.916667, 0.262058, 0.100000
 1240, 2.958333, 0.253067, 0.100000
 1241, 3.000000, 0.250000, 0.100000
 1242, 0.000000, 0.333333, 0.100000
 1243, 0.041667, 0.336400, 0.100000
 1244, 0.083333, 0.345391, 0.100000
 1245, 0.125000, 0.359694, 0.100000
 1246, 0.166667, 0.378333, 0.100000
 1247, 0.208333, 0.400040, 0.100000
 1248, 0.250000, 0.423333, 0.100000
 1249, 0.291667, 0.446627, 0.100000
 1250, 0.333333, 0.468333, 0.100000
 1251, 0.375000, 0.486973, 0.100000
 1252, 0.416667, 0.501276, 0.100000
 1253, 0.458333, 0.510267, 0.100000
 1254, 0.500000, 0.513333, 0.100000
 1255, 0.541667, 0.510267, 0.100000
 1256, 0.583333, 0.501276, 0.100000
 1257, 0.625000, 0.486973, 0.100000
 1258, 0.666667, 0.468333, 0.100000
 1259, 0.708333, 0.446627, 0.100000
 1260, 0.750000, 0.423333, 0.100000
 1261, 0.791667, 0.400040, 0.100000
 1262, 0.833333, 0.378333, 0.100000
 1263, 0.875000, 0.359694, 0.100000
 1264, 0.916667, 0.345391, 0.100000
 1265, 0.958333, 0.336400, 0.100000
 1266, 1.000000, 0.333333, 0.100000
 1267, 1.041667, 0.336400, 0.100000
 1268, 1.083333, 0.345391, 0.100000
 1269, 1.125000, 0.359694, 0.100000
 1270, 1.166667, 0.378333, 0.100000
 1271, 1.208333, 0.400040, 0.100000
 1272, 1.250000, 0.423333, 0.100000
 1273, 1.291667, 0.446627, 0.100000
 1274, 1.333333, 0.468333, 0.100000
 1275, 1.375000, 0.486973, 0.100000
 1276, 1.416667, 0.501276, 0.100000
 1277, 1.458333, 0.510267, 0.100000
 1278, 1.500000, 0.513333, 0.100000
 1279, 1.541667, 0.510267, 0.100000
 1280, 1.583333, 0.501276, 0.100000
 1281, 1.625000, 0.486973, 0.100000
 1282, 1.666667, 0.468333, 0.100000
 1283, 1.708333, 0.446627, 0.100000
 1284, 1.750000, 0.423333, 0.100000
 1285, 1.791667, 0.400040, 0.100000
 1286, 1.833333, 0.378333, 0.100000
 1287, 1.875000, 0.359694, 0.100000
 1288, 1.916667, 0.345391, 0.100000
 1289, 1.958333, 0.336400, 0.100000
 1290, 2.000000, 0.333333, 0.100000
 1291, 2.041667, 0.336400, 0.100000
 1292, 2.083333, 0.345391, 0.100000
 1293, 2.125000, 0.359694, 0.100000
 1294, 2.166667, 0.378333, 0.100000
 1295, 2.208333, 0.400040, 0.100000
 1296, 2.250000, 0.423333, 0.100000
 1297, 2.291667, 0.446627, 0.100000
 1298, 2.333333, 0.468333, 0.100000
 1299, 2.375000, 0.486973, 0.100000
 1300, 2.416667, 0.501276, 0.100000
 1301, 2.458333, 0.510267, 0.100000
 1302, 2.500000, 0.513333, 0.100000
 1303, 2.541667, 0.510267, 0.100000
 1304, 2.583333, 0.501276, 0.100000
 1305, 2.625000, 0.486973, 0.100000
 1306, 2.666667, 0.468333, 0.100000
 1307, 2.708333, 0.446627, 0.100000
 1308, 2.750000, 0.423333, 0.100000
 1309, 2.791667, 0.400040, 0.100000
 1310, 2.833333, 0.378333, 0.100000
 1311, 2.875000, 0.359694, 0.100000
 1312, 2.916667, 0.345391, 0.100000
 1313, 2.958333, 0.336400, 0.100000
 1314, 3.000000, 0.333333, 0.100000
 1315, 0.000000, 0.416667, 0.100000
 1316, 0.041667, 0.419733, 0.100000
 1317, 0.083333, 0.428724, 0.100000
 1318, 0.125000, 0.443027, 0.100000
 1319, 0.166667, 0.461667, 0.100000
 1320, 0.208333, 0.483373, 0.100000
 1321, 0.250000, 0.506667, 0.100000
 1322, 0.291667, 0.529960, 0.100000
 1323, 0.333333, 0.551667, 0.100000
 1324, 0.375000, 0.570306, 0.100000
 1325, 0.416667, 0.584609, 0.100000
 1326, 0.458333, 0.593600, 0.100000
 1327, 0.500000, 0.596667, 0.100000
 1328, 0.541667, 0.593600, 0.100000
 1329, 0.583333, 0.584609, 0.100000
 1330, 0.625000, 0.570306, 0.100000
 1331, 0.666667, 0.551667, 0.100000
 1332, 0.708333, 0.529960, 0.100000
 1333, 0.750000, 0.506667, 0.100000
 1334, 0.791667, 0.483373, 0.100000
 1335, 0.833333, 0.461667, 0.100000
 1336, 0.875000, 0.443027, 0.100000
 1337, 0.916667, 0.428724, 0.100000
 1338, 0.958333, 0.419733, 0.100000
 1339, 1.000000, 0.416667, 0.100000
 1340, 1.041667, 0.419733, 0.100000
 1341, 1.083333, 0.428724, 0.100000
 1342, 1.125000, 0.443027, 0.100000
 1343, 1.166667, 0.461667, 0.100000
 1344, 1.208333, 0.483373, 0.100000
 1345, 1.250000, 0.506667, 0.100000
 1346, 1.291667, 0.529960, 0.100000
 1347, 1.333333, 0.551667, 0.100000
 1348, 1.375000, 0.570306, 0.100000
 1349, 1.416667, 0.584609, 0.100000
 1350, 1.458333, 0.593600, 0.100000
 1351, 1.500000, 0.596667, 0.100000
 1352, 1.541667, 0.593600, 0.100000
 1353, 1.583333, 0.584609, 0.100000
 1354, 1.625000, 0.570306, 0.100000
 1355, 1.666667, 0.551667, 0.100000
 1356, 1.708333, 0.529960, 0.100000
 1357, 1.750000, 0.506667, 0.100000
 1358, 1.791667, 0.483373, 0.100000
 1359, 1.833333, 0.461667, 0.100000
 1360, 1.875000, 0.443027, 0.100000
 1361, 1.916667, 0.428724, 0.100000
 1362, 1.958333, 0.419733, 0.100000
 1363, 2.000000, 0.416667, 0.100000
 1364, 2.041667, 0.419733, 0.100000
 1365, 2.083333, 0.428724, 0.100000
 1366, 2.125000, 0.443027, 0.100000
 1367, 2.166667, 0.461667, 0.100000
 1368, 2.208333, 0.483373, 0.100000
 1369, 2.250000, 0.506667, 0.100000
 1370, 2.291667, 0.529960, 0.100000
 1371, 2.333333, 0.551667, 0.100000
 1372, 2.375000, 0.570306, 0.100000
 1373, 2.416667, 0.584609, 0.100000
 1374, 2.458333, 0.593600, 0.100000
 1375, 2.500000, 0.596667, 0.100000
 1376, 2.541667, 0.593600, 0.100000
 1377, 2.583333, 0.584609, 0.100000
 1378, 2.625000, 0.570306, 0.100000
 1379, 2.666667, 0.551667, 0.100000
 1380, 2.708333, 0.529960, 0.100000
 1381, 2.750000, 0.506667, 0.100000
 1382, 2.791667, 0.483373, 0.100000
 1383, 2.833333, 0.461667, 0.100000
 1384, 2.875000, 0.443027, 0.100000
 1385, 2.916667, 0.428724, 0.100000
 1386, 2.958333, 0.419733, 0.100000
 1387, 3.000000, 0.416667, 0.100000
 1388, 0.000000, 0.500000, 0.100000
 1389, 0.041667, 0.503067, 0.100000
 1390, 0.083333, 0.512058, 0.100000
 1391, 0.125000, 0.526360, 0.100000
 1392, 0.166667, 0.545000, 0.100000
 1393, 0.208333, 0.566706, 0.100000
 1394, 0.250000, 0.590000, 0.100000
 1395, 0.291667, 0.613294, 0.100000
 1396, 0.333333, 0.635000, 0.100000
 1397, 0.375000, 0.653640, 0.100000
 1398, 0.416667, 0.667942, 0.100000
 1399, 0.458333, 0.676933, 0.100000
 1400, 0.500000, 0.680000, 0.100000
 1401, 0.541667, 0.676933, 0.100000
 1402, 0.583333, 0.667942, 0.100000
 1403, 0.625000, 0.653640, 0.100000
 1404, 0.666667, 0.635000, 0.100000
 1405, 0.708333, 0.613294, 0.100000
 1406, 0.750000, 0.590000, 0.100000
 1407, 0.791667, 0.566706, 0.100000
 1408, 0.833333, 0.545000, 0.100000
 1409, 0.875000, 0.526360, 0.100000
 1410, 0.916667, 0.512058, 0.100000
 1411, 0.958333, 0.503067, 0.100000
 1412, 1.000000, 0.500000, 0.100000
 1413, 1.041667, 0.503067, 0.100000
 1414, 1.083333, 0.512058, 0.100000
 1415, 1.125000, 0.526360, 0.100000
 1416, 1.166667, 0.545000, 0.100000
 1417, 1.208333, 0.566706, 0.100000
 1418, 1.250000, 0.590000, 0.100000
 1419, 1.291667, 0.613294, 0.100000
 1420, 1.333333, 0.635000, 0.100000
 1421, 1.375000, 0.653640, 0.100000
 1422, 1.416667, 0.667942, 0.100000
 1423, 1.458333, 0.676933, 0.100000
 1424, 1.500000, 0.680000, 0.100000
 1425, 1.541667, 0.676933, 0.100000
 1426, 1.583333, 0.667942, 0.100000
 1427, 1.625000, 0.653640, 0.100000
 1428, 1.666667, 0.635000, 0.100000
 1429, 1.708333, 0.613294, 0.100000
 1430, 1.750000, 0.590000, 0.100000
 1431, 1.791667, 0.566706, 0.100000
 1432, 1.833333, 0.545000, 0.100000
 1433, 1.875000, 0.526360, 0.100000
 1434, 1.916667, 0.512058, 0.100000
 1435, 1.958333, 0.503067, 0.100000
 1436, 2.000000, 0.500000, 0.100000
 1437, 2.041667, 0.503067, 0.100000
 1438, 2.083333, 0.512058, 0.100000
 1439, 2.125000, 0.526360, 0.100000
 1440, 2.166667, 0.545000, 0.100000
 1441, 2.208333, 0.566706, 0.100000
 1442, 2.250000, 0.590000, 0.100000
 1443, 2.291667, 0.613294, 0.100000
 1444, 2.333333, 0.635000, 0.100000
 1445, 2.375000, 0.653640, 0.100000
 1446, 2.416667, 0.667942, 0.100000
 1447, 2.458333, 0.676933, 0.100000
 1448, 2.500000, 0.680000, 0.100000
 1449, 2.541667, 0.676933, 0.100000
 1450, 2.583333, 0.667942, 0.100000
 1451, 2.625000, 0.653640, 0.100000
 1452, 2.666667, 0.635000, 0.100000
 1453, 2.708333, 0.613294, 0.100000
 1454, 2.750000, 0.590000, 0.100000
 1455, 2.791667, 0.566706, 0.100000
 1456, 2.833333, 0.545000, 0.100000
 1457, 2.875000, 0.526360, 0.100000
 1458, 2.916667, 0.512058, 0.100000
 1459, 2.958333, 0.503067, 0.100000
 1460, 3.000000, 0.500000, 0.100000
 1461, 0.000000, 0.583333, 0.100000
 1462, 0.041667, 0.586400, 0.100000
 1463, 0.083333, 0.595391, 0.100000
 1464, 0.125000, 0.609694, 0.100000
 1465, 0.166667, 0.628333, 0.100000
 1466, 0.208333, 0.650040, 0.100000
 1467, 0.250000, 0.673333, 0.100000
 1468, 0.291667, 0.696627, 0.100000
 1469, 0.333333, 0.718333, 0.100000
 1470, 0.375000, 0.736973, 0.100000
 1471, 0.416667, 0.751276, 0.100000
 1472, 0.458333, 0.760267, 0.100000
 1473, 0.500000, 0.763333, 0.100000
 1474, 0.541667, 0.760267, 0.100000
 1475, 0.583333, 0.751276, 0.100000
 1476, 0.625000, 0.736973, 0.100000
 1477, 0.666667, 0.718333, 0.100000
 1478, 0.708333, 0.696627, 0.100000
 1479, 0.750000, 0.673333, 0.100000
 1480, 0.791667, 0.650040, 0.100000
 1481, 0.833333, 0.628333, 0.100000
 1482, 0.875000, 0.609694, 0.100000
 1483, 0.916667, 0.595391, 0.100000
 1484, 0.958333, 0.586400, 0.100000
 1485, 1.000000, 0.583333, 0.100000
 1486, 1.041667, 0.586400, 0.100000
 1487, 1.083333, 0.595391, 0.100000
 1488, 1.125000, 0.609694, 0.100000
 1489, 1.166667, 0.628333, 0.100000
 1490, 1.208333, 0.650040, 0.100000
 1491, 1.250000, 0.673333, 0.100000
 1492, 1.291667, 0.696627, 0.100000
 1493, 1.333333, 0.718333, 0.100000
 1494, 1.375000, 0.736973, 0.100000
 1495, 1.416667, 0.751276, 0.100000
 1496, 1.458333, 0.760267, 0.100000
 1497, 1.500000, 0.763333, 0.100000
 1498, 1.541667, 0.760267, 0.100000
 1499, 1.583333, 0.751276, 0.100000
 1500, 1.625000, 0.736973, 0.100000
 1501, 1.666667, 0.718333, 0.100000
 1502, 1.708333, 0.696627, 0.100000
 1503, 1.750000, 0.673333, 0.100000
 1504, 1.791667, 0.650040, 0.100000
 1505, 1.833333, 0.628333, 0.100000
 1506, 1.875000, 0.609694, 0.100000
 1507, 1.916667, 0.595391, 0.100000
 1508, 1.958333, 0.586400, 0.100000
 1509, 2.000000, 0.583333, 0.100000
 1510, 2.041667, 0.586400, 0.100000
 1511, 2.083333, 0.595391, 0.100000
 1512, 2.125000, 0.609694, 0.100000
 1513, 2.166667, 0.628333, 0.100000
 1514, 2.208333, 0.650040, 0.100000
 1515, 2.250000, 0.673333, 0.100000
 1516, 2.291667, 0.696627, 0.100000
 1517, 2.333333, 0.718333, 0.100000
 1518, 2.375000, 0.736973, 0.100000
 1519, 2.416667, 0.751276, 0.100000
 1520, 2.458333, 0.760267, 0.100000
 1521, 2.500000, 0.763333, 0.100000
 1522, 2.541667, 0.760267, 0.100000
 1523, 2.583333, 0.751276, 0.100000
 1524, 2.625000, 0.736973, 0.100000
 1525, 2.666667, 0.718333, 0.100000
 1526, 2.708333, 0.696627, 0.100000
 1527, 2.750000, 0.673333, 0.100000
 1528, 2.791667, 0.650040, 0.100000
 1529, 2.833333, 0.628333, 0.100000
 1530, 2.875000, 0.609694, 0.100000
 1531, 2.916667, 0.595391, 0.100000
 1532, 2.958333, 0.586400, 0.100000
 1533, 3.000000, 0.583333, 0.100000
 1534, 0.000000, 0.666667, 0.100000
 1535, 0.041667, 0.669733, 0.100000
 1536, 0.083333, 0.678724, 0.100000
 1537, 0.125000, 0.693027, 0.100000
 1538, 0.166667, 0.711667, 0.100000
 1539, 0.208333, 0.733373, 0.100000
 1540, 0.250000, 0.756667, 0.100000
 1541, 0.291667, 0.779960, 0.100000
 1542, 0.333333, 0.801667, 0.100000
 1543, 0.375000, 0.820306, 0.100000
 1544, 0.416667, 0.834609, 0.100000
 1545, 0.458333, 0.843600, 0.100000
 1546, 0.500000, 0.846667, 0.100000
 1547, 0.541667, 0.843600, 0.100000
 1548, 0.583333, 0.834609, 0.100000
 1549, 0.625000, 0.820306, 0.100000
 1550, 0.666667, 0.801667, 0.100000
 1551, 0.708333, 0.779960, 0.100000
 1552, 0.750000, 0.756667, 0.100000
 1553, 0.791667, 0.733373, 0.100000
 1554, 0.833333, 0.711667, 0.100000
 1555, 0.875000, 0.693027, 0.100000
 1556, 0.916667, 0.678724, 0.100000
 1557, 0.958333, 0.669733, 0.100000
 1558, 1.000000, 0.666667, 0.100000
 1559, 1.041667, 0.669733, 0.100000
 1560, 1.083333, 0.678724, 0.100000
 1561, 1.125000, 0.693027, 0.100000
 1562, 1.166667, 0.711667, 0.100000
 1563, 1.208333, 0.733373, 0.100000
 1564, 1.250000, 0.756667, 0.100000
 1565, 1.291667, 0.779960, 0.100000
 1566, 1.333333, 0.801667, 0.100000
 1567, 1.375000, 0.820306, 0.100000
 1568, 1.416667, 0.834609, 0.100000
 1569, 1.458333, 0.843600, 0.100000
 1570, 1.500000, 0.846667, 0.100000
 1571, 1.541667, 0.843600, 0.100000
 1572, 1.583333, 0.834609, 0.100000
 1573, 1.625000, 0.820306, 0.100000
 1574, 1.666667, 0.801667, 0.100000
 1575, 1.708333, 0.779960, 0.100000
 1576, 1.750000, 0.756667, 0.100000
 1577, 1.791667, 0.733373, 0.100000
 1578, 1.833333, 0.711667, 0.100000
 1579, 1.875000, 0.693027, 0.100000
 1580, 1.916667, 0.678724, 0.100000
 1581, 1.958333, 0.669733, 0.100000
 1582, 2.000000, 0.666667, 0.100000
 1583, 2.041667, 0.669733, 0.100000
 1584, 2.083333, 0.678724, 0.100000
 1585, 2.125000, 0.693027, 0.100000
 1586, 2.166667, 0.711667, 0.100000
 1587, 2.208333, 0.733373, 0.100000
 1588, 2.250000, 0.756667, 0.100000
 1589, 2.291667, 0.779960, 0.100000
 1590, 2.333333, 0.801667, 0.100000
 1591, 2.375000, 0.820306, 0.100000
 1592, 2.416667, 0.834609, 0.100000
 1593, 2.458333, 0.843600, 0.100000
 1594, 2.500000, 0.846667, 0.100000
 1595, 2.541667, 0.843600, 0.100000
 1596, 2.583333, 0.834609, 0.100000
 1597, 2.625000, 0.820306, 0.100000
 1598, 2.666667, 0.801667, 0.100000
 1599, 2.708333, 0.779960, 0.100000
 1600, 2.750000, 0.756667, 0.100000
 1601, 2.791667, 0.733373, 0.100000
 1602, 2.833333, 0.711667, 0.100000
 1603, 2.875000, 0.693027, 0.100000
 1604, 2.916667, 0.678724, 0.100000
 1605, 2.958333, 0.669733, 0.100000
 1606, 3.000000, 0.666667, 0.100000
 1607, 0.000000, 0.750000, 0.100000
 1608, 0.041667, 0.753067, 0.100000
 1609, 0.083333, 0.762058, 0.100000
 1610, 0.125000, 0.776360, 0.100000
 1611, 0.166667, 0.795000, 0.100000
 1612, 0.208333, 0.816706, 0.100000
 1613, 0.250000, 0.840000, 0.100000
 1614, 0.291667, 0.863294, 0.100000
 1615, 0.333333, 0.885000, 0.100000
 1616, 0.375000, 0.903640, 0.100000
 1617, 0.416667, 0.917942, 0.100000
 1618, 0.458333, 0.926933, 0.100000
 1619, 0.500000, 0.930000, 0.100000
 1620, 0.541667, 0.926933, 0.100000
 1621, 0.583333, 0.917942, 0.100000
 1622, 0.625000, 0.903640, 0.100000
 1623, 0.666667, 0.885000, 0.100000
 1624, 0.708333, 0.863294, 0.100000
 1625, 0.750000, 0.840000, 0.100000
 1626, 0.791667, 0.816706, 0.100000
 1627, 0.833333, 0.795000, 0.100000
 1628, 0.875000, 0.776360, 0.100000
 1629, 0.916667, 0.762058, 0.100000
 1630, 0.958333, 0.753067, 0.100000
 1631, 1.000000, 0.750000, 0.100000
 1632, 1.041667, 0.753067, 0.100000
 1633, 1.083333, 0.762058, 0.100000
 1634, 1.125000, 0.776360, 0.100000
 1635, 1.166667, 0.795000, 0.100000
 1636, 1.208333, 0.816706, 0.100000
 1637, 1.250000, 0.840000, 0.100000
 1638, 1.291667, 0.863294, 0.100000
 1639, 1.333333, 0.885000, 0.100000
 1640, 1.375000, 0.903640, 0.100000
 1641, 1.416667, 0.917942, 0.100000
 1642, 1.458333, 0.926933, 0.100000
 1643, 1.500000, 0.930000, 0.100000
 1644, 1.541667, 0.926933, 0.100000
 1645, 1.583333, 0.917942, 0.100000
 1646, 1.625000, 0.903640, 0.100000
 1647, 1.666667, 0.885000, 0.100000
 1648, 1.708333, 0.863294, 0.100000
 1649, 1.750000, 0.840000, 0.100000
 1650, 1.791667, 0.816706, 0.100000
 1651, 1.833333, 0.795000, 0.100000
 1652, 1.875000, 0.776360, 0.100000
 1653, 1.916667, 0.762058, 0.100000
 1654, 1.958333, 0.753067, 0.100000
 1655, 2.000000, 0.750000, 0.100000
 1656, 2.041667, 0.753067, 0.100000
 1657, 2.083333, 0.762058, 0.100000
 1658, 2.125000, 0.776360, 0.100000
 1659, 2.166667, 0.795000, 0.100000
 1660, 2.208333, 0.816706, 0.100000
 1661, 2.250000, 0.840000, 0.100000
 1662, 2.291667, 0.863294, 0.100000
 1663, 2.333333, 0.885000, 0.100000
 1664, 2.375000, 0.903640, 0.100000
 1665, 2.416667, 0.917942, 0.100000
 1666, 2.458333, 0.926933, 0.100000
 1667, 2.500000, 0.930000, 0.100000
 1668, 2.541667, 0.926933, 0.100000
 1669, 2.583333, 0.917942, 0.100000
 1670, 2.625000, 0.903640, 0.100000
 1671, 2.666667, 0.885000, 0.100000
 1672, 2.708333, 0.863294, 0.100000
 1673, 2.750000, 0.840000, 0.100000
 1674, 2.791667, 0.816706, 0.100000
 1675, 2.833333, 0.795000, 0.100000
 1676, 2.875000, 0.776360, 0.100000
 1677, 2.916667, 0.762058, 0.100000
 1678, 2.958333, 0.753067, 0.100000
 1679, 3.000000, 0.750000, 0.100000
 1680, 0.000000, 0.833333, 0.100000
 1681, 0.041667, 0.836400, 0.100000
 1682, 0.083333, 0.845391, 0.100000
 1683, 0.125000, 0.859694, 0.100000
 1684, 0.166667, 0.878333, 0.100000
 1685, 0.208333, 0.900040, 0.100000
 1686, 0.250000, 0.923333, 0.100000
 1687, 0.291667, 0.946627, 0.100000
 1688, 0.333333, 0.968333, 0.100000
 1689, 0.375000, 0.986973, 0.100000
 1690, 0.416667, 1.001276, 0.100000
 1691, 0.458333, 1.010267, 0.100000
 1692, 0.500000, 1.013333, 0.100000
 1693, 0.541667, 1.010267, 0.100000
 1694, 0.583333, 1.001276, 0.100000
 1695, 0.625000, 0.986973, 0.100000
 1696, 0.666667, 0.968333, 0.100000
 1697, 0.708333, 0.946627, 0.100000
 1698, 0.750000, 0.923333, 0.100000
 1699, 0.791667, 0.900040, 0.100000
 1700, 0.833333, 0.878333, 0.100000
 1701, 0.875000, 0.859694, 0.100000
 1702, 0.916667, 0.845391, 0.100000
 1703, 0.958333, 0.836400, 0.100000
 1704, 1.000000, 0.833333, 0.100000
 1705, 1.041667, 0.836400, 0.100000
 1706, 1.083333, 0.845391, 0.100000
 1707, 1.125000, 0.859694, 0.100000
 1708, 1.166667, 0.878333, 0.100000
 1709, 1.208333, 0.900040, 0.100000
 1710, 1.250000, 0.923333, 0.100000
 1711, 1.291667, 0.946627, 0.100000
 1712, 1.333333, 0.968333, 0.100000
 1713, 1.375000, 0.986973, 0.100000
 1714, 1.416667, 1.001276, 0.100000
 1715, 1.458333, 1.010267, 0.100000
 1716, 1.500000, 1.013333, 0.100000
 1717, 1.541667, 1.010267, 0.100000
 1718, 1.583333, 1.001276, 0.100000
 1719, 1.625000, 0.986973, 0.100000
 1720, 1.666667, 0.968333, 0.100000
 1721, 1.708333, 0.946627, 0.100000
 1722, 1.750000, 0.923333, 0.100000
 1723, 1.791667, 0.900040, 0.100000
 1724, 1.833333, 0.878333, 0.100000
 1725, 1.875000, 0.859694, 0.100000
 1726, 1.916667, 0.845391, 0.100000
 1727, 1.958333, 0.836400, 0.100000
 1728, 2.000000, 0.833333, 0.100000
 1729, 2.041667, 0.836400, 0.100000
 1730, 2.083333, 0.845391, 0.100000
 1731, 2.125000, 0.859694, 0.100000
 1732, 2.166667, 0.878333, 0.100000
 1733, 2.208333, 0.900040, 0.100000
 1734, 2.250000, 0.923333, 0.100000
 1735, 2.291667, 0.946627, 0.100000
 1736, 2.333333, 0.968333, 0.100000
 1737, 2.375000, 0.986973, 0.100000
 1738, 2.416667, 1.001276, 0.100000
 1739, 2.458333, 1.010267, 0.100000
 1740, 2.500000, 1.013333, 0.100000
 1741, 2.541667, 1.010267, 0.100000
 1742, 2.583333, 1.001276, 0.100000
 1743, 2.625000, 0.986973, 0.100000
 1744, 2.666667, 0.968333, 0.100000
 1745, 2.708333, 0.946627, 0.100000
 1746, 2.750000, 0.923333, 0.100000
 1747, 2.791667, 0.900040, 0.100000
 1748, 2.833333, 0.878333, 0.100000
 1749, 2.875000, 0.859694, 0.100000
 1750, 2.916667, 0.845391, 0.100000
 1751, 2.958333, 0.836400, 0.100000
 1752, 3.000000, 0.833333, 0.100000
 1753, 0.000000, 0.916667, 0.100000
 1754, 0.041667, 0.919733, 0.100000
 1755, 0.083333, 0.928724, 0.100000
 1756, 0.125000, 0.943027, 0.100000
 1757, 0.166667, 0.961667, 0.100000
 1758, 0.208333, 0.983373, 0.100000
 1759, 0.250000, 1.006667, 0.100000
 1760, 0.291667, 1.029960, 0.100000
 1761, 0.333333, 1.051667, 0.100000
 1762, 0.375000, 1.070306, 0.100000
 1763, 0.416667, 1.084609, 0.100000
 1764, 0.458333, 1.093600, 0.100000
 1765, 0.500000, 1.096667, 0.100000
 1766, 0.541667, 1.093600, 0.100000
 1767, 0.583333, 1.084609, 0.100000
 1768, 0.625000, 1.070306, 0.100000
 1769, 0.666667, 1.051667, 0.100000
 1770, 0.708333, 1.029960, 0.100000
 1771, 0.750000, 1.006667, 0.100000
 1772, 0.791667, 0.983373, 0.100000
 1773, 0.833333, 0.961667, 0.100000
 1774, 0.875000, 0.943027, 0.100000
 1775, 0.916667, 0.928724, 0.100000
 1776, 0.958333, 0.919733, 0.100000
 1777, 1.000000, 0.916667, 0.100000
 1778, 1.041667, 0.919733, 0.100000
 1779, 1.083333, 0.928724, 0.100000
 1780, 1.125000, 0.943027, 0.100000
 1781, 1.166667, 0.961667, 0.100000
 1782, 1.208333, 0.983373, 0.100000
 1783, 1.250000, 1.006667, 0.100000
 1784, 1.291667, 1.029960, 0.100000
 1785, 1.333333, 1.051667, 0.100000
 1786, 1.375000, 1.070306, 0.100000
 1787, 1.416667, 1.084609, 0.100000
 1788, 1.458333, 1.093600, 0.100000
 1789, 1.500000, 1.096667, 0.100000
 1790, 1.541667, 1.093600, 0.100000
 1791, 1.583333, 1.084609, 0.100000
 1792, 1.625000, 1.070306, 0.100000
 1793, 1.666667, 1.051667, 0.100000
 1794, 1.708333, 1.029960, 0.100000
 1795, 1.750000, 1.006667, 0.100000
 1796, 1.791667, 0.983373, 0.100000
 1797, 1.833333, 0.961667, 0.100000
 1798, 1.875000, 0.943027, 0.100000
 1799, 1.916667, 0.928724, 0.100000
 1800, 1.958333, 0.919733, 0.100000
 1801, 2.000000, 0.916667, 0.100000
 1802, 2.041667, 0.919733, 0.100000
 1803, 2.083333, 0.928724, 0.100000
 1804, 2.125000, 0.943027, 0.100000
 1805, 2.166667, 0.961667, 0.100000
 1806, 2.208333, 0.983373, 0.100000
 1807, 2.250000, 1.006667, 0.100000
 1808, 2.291667, 1.029960, 0.100000
 1809, 2.333333, 1.051667, 0.100000
 1810, 2.375000, 1.070306, 0.100000
 1811, 2.416667, 1.084609, 0.100000
 1812, 2.458333, 1.093600, 0.100000
 1813, 2.500000, 1.096667, 0.100000
 1814, 2.541667, 1.093600, 0.100000
 1815, 2.583333, 1.084609, 0.100000
 1816, 2.625000, 1.070306, 0.100000
 1817, 2.666667, 1.051667, 0.100000
 1818, 2.708333, 1.029960, 0.100000
 1819, 2.750000, 1.006667, 0.100000
 1820, 2.791667, 0.983373, 0.100000
 1821, 2.833333, 0.961667, 0.100000
 1822, 2.875000, 0.943027, 0.100000
 1823, 2.916667, 0.928724, 0.100000
 1824, 2.958333, 0.919733, 0.100000
 1825, 3.000000, 0.916667, 0.100000
 1826, 0.000000, 1.000000, 0.100000
 1827, 0.041667, 1.003067, 0.100000
 1828, 0.083333, 1.012058, 0.100000
 1829, 0.125000, 1.026360, 0.100000
 1830, 0.166667, 1.045000, 0.100000
 1831, 0.208333, 1.066706, 0.100000
 1832, 0.250000, 1.090000, 0.100000
 1833, 0.291667, 1.113294, 0.100000
 1834, 0.333333, 1.135000, 0.100000
 1835, 0.375000, 1.153640, 0.100000
 1836, 0.416667, 1.167942, 0.100000
 1837, 0.458333, 1.176933, 0.100000
 1838, 0.500000, 1.180000, 0.100000
 1839, 0.541667, 1.176933, 0.100000
 1840, 0.583333, 1.167942, 0.100000
 1841, 0.625000, 1.153640, 0.100000
 1842, 0.666667, 1.135000, 0.100000
 1843, 0.708333, 1.113294, 0.100000
 1844, 0.750000, 1.090000, 0.100000
 1845, 0.791667, 1.066706, 0.100000
 1846, 0.833333, 1.045000, 0.100000
 1847, 0.875000, 1.026360, 0.100000
 1848, 0.916667, 1.012058, 0.100000
 1849, 0.958333, 1.003067, 0.100000
 1850, 1.000000, 1.000000, 0.100000
 1851, 1.041667, 1.003067, 0.100000
 1852, 1.083333, 1.012058, 0.100000
 1853, 1.125000, 1.026360, 0.100000
 1854, 1.166667, 1.045000, 0.100000
 1855, 1.208333, 1.066706, 0.100000
 1856, 1.250000, 1.090000, 0.100000
 1857, 1.291667, 1.113294, 0.100000
 1858, 1.333333, 1.135000, 0.100000
 1859, 1.375000, 1.153640, 0.100000
 1860, 1.416667, 1.167942, 0.100000
 1861, 1.458333, 1.176933, 0.100000
 1862, 1.500000, 1.180000, 0.100000
 1863, 1.541667, 1.176933, 0.100000
 1864, 1.583333, 1.167942, 0.100000
 1865, 1.625000, 1.153640, 0.100000
 1866, 1.666667, 1.135000, 0.100000
 1867, 1.708333, 1.113294, 0.100000
 1868, 1.750000, 1.090000, 0.100000
 1869, 1.791667, 1.066706, 0.100000
 1870, 1.833333, 1.045000, 0.100000
 1871, 1.875000, 1.026360, 0.100000
 1872, 1.916667, 1.012058, 0.100000
 1873, 1.958333, 1.003067, 0.100000
 1874, 2.000000, 1.000000, 0.100000
 1875, 2.041667, 1.003067, 0.100000
 1876, 2.083333, 1.012058, 0.100000
 1877, 2.125000, 1.026360, 0.100000
 1878, 2.166667, 1.045000, 0.100000
 1879, 2.208333, 1.066706, 0.100000
 1880, 2.250000, 1.090000, 0.100000
 1881, 2.291667, 1.113294, 0.100000
 1882, 2.333333, 1.135000, 0.100000
 1883, 2.375000, 1.153640, 0.100000
 1884, 2.416667, 1.167942, 0.100000
 1885, 2.458333, 1.176933, 0.100000
 1886, 2.500000, 1.180000, 0.100000
 1887, 2.541667, 1.176933, 0.100000
 1888, 2.583333, 1.167942, 0.100000
 1889, 2.625000, 1.153640, 0.100000
 1890, 2.666667, 1.135000, 0.100000
 1891, 2.708333, 1.113294, 0.100000
 1892, 2.750000, 1.090000, 0.100000
 1893, 2.791667, 1.066706, 0.100000
 1894, 2.833333, 1.045000, 0.100000
 1895, 2.875000, 1.026360, 0.100000
 1896, 2.916667, 1.012058, 0.100000
 1897, 2.958333, 1.003067, 0.100000
 1898, 3.000000, 1.000000, 0.100000
*ELEMENT, TYPE=C3D8, ELSET=BIOFILM
 1, 1, 2, 75, 74, 950, 951, 1024, 1023
 2, 2, 3, 76, 75, 951, 952, 1025, 1024
 3, 3, 4, 77, 76, 952, 953, 1026, 1025
 4, 4, 5, 78, 77, 953, 954, 1027, 1026
 5, 5, 6, 79, 78, 954, 955, 1028, 1027
 6, 6, 7, 80, 79, 955, 956, 1029, 1028
 7, 7, 8, 81, 80, 956, 957, 1030, 1029
 8, 8, 9, 82, 81, 957, 958, 1031, 1030
 9, 9, 10, 83, 82, 958, 959, 1032, 1031
 10, 10, 11, 84, 83, 959, 960, 1033, 1032
 11, 11, 12, 85, 84, 960, 961, 1034, 1033
 12, 12, 13, 86, 85, 961, 962, 1035, 1034
 13, 13, 14, 87, 86, 962, 963, 1036, 1035
 14, 14, 15, 88, 87, 963, 964, 1037, 1036
 15, 15, 16, 89, 88, 964, 965, 1038, 1037
 16, 16, 17, 90, 89, 965, 966, 1039, 1038
 17, 17, 18, 91, 90, 966, 967, 1040, 1039
 18, 18, 19, 92, 91, 967, 968, 1041, 1040
 19, 19, 20, 93, 92, 968, 969, 1042, 1041
 20, 20, 21, 94, 93, 969, 970, 1043, 1042
 21, 21, 22, 95, 94, 970, 971, 1044, 1043
 22, 22, 23, 96, 95, 971, 972, 1045, 1044
 23, 23, 24, 97, 96, 972, 973, 1046, 1045
 24, 24, 25, 98, 97, 973, 974, 1047, 1046
 25, 25, 26, 99, 98, 974, 975, 1048, 1047
 26, 26, 27, 100, 99, 975, 976, 1049, 1048
 27, 27, 28, 101, 100, 976, 977, 1050, 1049
 28, 28, 29, 102, 101, 977, 978, 1051, 1050
 29, 29, 30, 103, 102, 978, 979, 1052, 1051
 30, 30, 31, 104, 103, 979, 980, 1053, 1052
 31, 31, 32, 105, 104, 980, 981, 1054, 1053
 32, 32, 33, 106, 105, 981, 982, 1055, 1054
 33, 33, 34, 107, 106, 982, 983, 1056, 1055
 34, 34, 35, 108, 107, 983, 984, 1057, 1056
 35, 35, 36, 109, 108, 984, 985, 1058, 1057
 36, 36, 37, 110, 109, 985, 986, 1059, 1058
 37, 37, 38, 111, 110, 986, 987, 1060, 1059
 38, 38, 39, 112, 111, 987, 988, 1061, 1060
 39, 39, 40, 113, 112, 988, 989, 1062, 1061
 40, 40, 41, 114, 113, 989, 990, 1063, 1062
 41, 41, 42, 115, 114, 990, 991, 1064, 1063
 42, 42, 43, 116, 115, 991, 992, 1065, 1064
 43, 43, 44, 117, 116, 992, 993, 1066, 1065
 44, 44, 45, 118, 117, 993, 994, 1067, 1066
 45, 45, 46, 119, 118, 994, 995, 1068, 1067
 46, 46, 47, 120, 119, 995, 996, 1069, 1068
 47, 47, 48, 121, 120, 996, 997, 1070, 1069
 48, 48, 49, 122, 121, 997, 998, 1071, 1070
 49, 49, 50, 123, 122, 998, 999, 1072, 1071
 50, 50, 51, 124, 123, 999, 1000, 1073, 1072
 51, 51, 52, 125, 124, 1000, 1001, 1074, 1073
 52, 52, 53, 126, 125, 1001, 1002, 1075, 1074
 53, 53, 54, 127, 126, 1002, 1003, 1076, 1075
 54, 54, 55, 128, 127, 1003, 1004, 1077, 1076
 55, 55, 56, 129, 128, 1004, 1005, 1078, 1077
 56, 56, 57, 130, 129, 1005, 1006, 1079, 1078
 57, 57, 58, 131, 130, 1006, 1007, 1080, 1079
 58, 58, 59, 132, 131, 1007, 1008, 1081, 1080
 59, 59, 60, 133, 132, 1008, 1009, 1082, 1081
 60, 60, 61, 134, 133, 1009, 1010, 1083, 1082
 61, 61, 62, 135, 134, 1010, 1011, 1084, 1083
 62, 62, 63, 136, 135, 1011, 1012, 1085, 1084
 63, 63, 64, 137, 136, 1012, 1013, 1086, 1085
 64, 64, 65, 138, 137, 1013, 1014, 1087, 1086
 65, 65, 66, 139, 138, 1014, 1015, 1088, 1087
 66, 66, 67, 140, 139, 1015, 1016, 1089, 1088
 67, 67, 68, 141, 140, 1016, 1017, 1090, 1089
 68, 68, 69, 142, 141, 1017, 1018, 1091, 1090
 69, 69, 70, 143, 142, 1018, 1019, 1092, 1091
 70, 70, 71, 144, 143, 1019, 1020, 1093, 1092
 71, 71, 72, 145, 144, 1020, 1021, 1094, 1093
 72, 72, 73, 146, 145, 1021, 1022, 1095, 1094
 73, 74, 75, 148, 147, 1023, 1024, 1097, 1096
 74, 75, 76, 149, 148, 1024, 1025, 1098, 1097
 75, 76, 77, 150, 149, 1025, 1026, 1099, 1098
 76, 77, 78, 151, 150, 1026, 1027, 1100, 1099
 77, 78, 79, 152, 151, 1027, 1028, 1101, 1100
 78, 79, 80, 153, 152, 1028, 1029, 1102, 1101
 79, 80, 81, 154, 153, 1029, 1030, 1103, 1102
 80, 81, 82, 155, 154, 1030, 1031, 1104, 1103
 81, 82, 83, 156, 155, 1031, 1032, 1105, 1104
 82, 83, 84, 157, 156, 1032, 1033, 1106, 1105
 83, 84, 85, 158, 157, 1033, 1034, 1107, 1106
 84, 85, 86, 159, 158, 1034, 1035, 1108, 1107
 85, 86, 87, 160, 159, 1035, 1036, 1109, 1108
 86, 87, 88, 161, 160, 1036, 1037, 1110, 1109
 87, 88, 89, 162, 161, 1037, 1038, 1111, 1110
 88, 89, 90, 163, 162, 1038, 1039, 1112, 1111
 89, 90, 91, 164, 163, 1039, 1040, 1113, 1112
 90, 91, 92, 165, 164, 1040, 1041, 1114, 1113
 91, 92, 93, 166, 165, 1041, 1042, 1115, 1114
 92, 93, 94, 167, 166, 1042, 1043, 1116, 1115
 93, 94, 95, 168, 167, 1043, 1044, 1117, 1116
 94, 95, 96, 169, 168, 1044, 1045, 1118, 1117
 95, 96, 97, 170, 169, 1045, 1046, 1119, 1118
 96, 97, 98, 171, 170, 1046, 1047, 1120, 1119
 97, 98, 99, 172, 171, 1047, 1048, 1121, 1120
 98, 99, 100, 173, 172, 1048, 1049, 1122, 1121
 99, 100, 101, 174, 173, 1049, 1050, 1123, 1122
 100, 101, 102, 175, 174, 1050, 1051, 1124, 1123
 101, 102, 103, 176, 175, 1051, 1052, 1125, 1124
 102, 103, 104, 177, 176, 1052, 1053, 1126, 1125
 103, 104, 105, 178, 177, 1053, 1054, 1127, 1126
 104, 105, 106, 179, 178, 1054, 1055, 1128, 1127
 105, 106, 107, 180, 179, 1055, 1056, 1129, 1128
 106, 107, 108, 181, 180, 1056, 1057, 1130, 1129
 107, 108, 109, 182, 181, 1057, 1058, 1131, 1130
 108, 109, 110, 183, 182, 1058, 1059, 1132, 1131
 109, 110, 111, 184, 183, 1059, 1060, 1133, 1132
 110, 111, 112, 185, 184, 1060, 1061, 1134, 1133
 111, 112, 113, 186, 185, 1061, 1062, 1135, 1134
 112, 113, 114, 187, 186, 1062, 1063, 1136, 1135
 113, 114, 115, 188, 187, 1063, 1064, 1137, 1136
 114, 115, 116, 189, 188, 1064, 1065, 1138, 1137
 115, 116, 117, 190, 189, 1065, 1066, 1139, 1138
 116, 117, 118, 191, 190, 1066, 1067, 1140, 1139
 117, 118, 119, 192, 191, 1067, 1068, 1141, 1140
 118, 119, 120, 193, 192, 1068, 1069, 1142, 1141
 119, 120, 121, 194, 193, 1069, 1070, 1143, 1142
 120, 121, 122, 195, 194, 1070, 1071, 1144, 1143
 121, 122, 123, 196, 195, 1071, 1072, 1145, 1144
 122, 123, 124, 197, 196, 1072, 1073, 1146, 1145
 123, 124, 125, 198, 197, 1073, 1074, 1147, 1146
 124, 125, 126, 199, 198, 1074, 1075, 1148, 1147
 125, 126, 127, 200, 199, 1075, 1076, 1149, 1148
 126, 127, 128, 201, 200, 1076, 1077, 1150, 1149
 127, 128, 129, 202, 201, 1077, 1078, 1151, 1150
 128, 129, 130, 203, 202, 1078, 1079, 1152, 1151
 129, 130, 131, 204, 203, 1079, 1080, 1153, 1152
 130, 131, 132, 205, 204, 1080, 1081, 1154, 1153
 131, 132, 133, 206, 205, 1081, 1082, 1155, 1154
 132, 133, 134, 207, 206, 1082, 1083, 1156, 1155
 133, 134, 135, 208, 207, 1083, 1084, 1157, 1156
 134, 135, 136, 209, 208, 1084, 1085, 1158, 1157
 135, 136, 137, 210, 209, 1085, 1086, 1159, 1158
 136, 137, 138, 211, 210, 1086, 1087, 1160, 1159
 137, 138, 139, 212, 211, 1087, 1088, 1161, 1160
 138, 139, 140, 213, 212, 1088, 1089, 1162, 1161
 139, 140, 141, 214, 213, 1089, 1090, 1163, 1162
 140, 141, 142, 215, 214, 1090, 1091, 1164, 1163
 141, 142, 143, 216, 215, 1091, 1092, 1165, 1164
 142, 143, 144, 217, 216, 1092, 1093, 1166, 1165
 143, 144, 145, 218, 217, 1093, 1094, 1167, 1166
 144, 145, 146, 219, 218, 1094, 1095, 1168, 1167
 145, 147, 148, 221, 220, 1096, 1097, 1170, 1169
 146, 148, 149, 222, 221, 1097, 1098, 1171, 1170
 147, 149, 150, 223, 222, 1098, 1099, 1172, 1171
 148, 150, 151, 224, 223, 1099, 1100, 1173, 1172
 149, 151, 152, 225, 224, 1100, 1101, 1174, 1173
 150, 152, 153, 226, 225, 1101, 1102, 1175, 1174
 151, 153, 154, 227, 226, 1102, 1103, 1176, 1175
 152, 154, 155, 228, 227, 1103, 1104, 1177, 1176
 153, 155, 156, 229, 228, 1104, 1105, 1178, 1177
 154, 156, 157, 230, 229, 1105, 1106, 1179, 1178
 155, 157, 158, 231, 230, 1106, 1107, 1180, 1179
 156, 158, 159, 232, 231, 1107, 1108, 1181, 1180
 157, 159, 160, 233, 232, 1108, 1109, 1182, 1181
 158, 160, 161, 234, 233, 1109, 1110, 1183, 1182
 159, 161, 162, 235, 234, 1110, 1111, 1184, 1183
 160, 162, 163, 236, 235, 1111, 1112, 1185, 1184
 161, 163, 164, 237, 236, 1112, 1113, 1186, 1185
 162, 164, 165, 238, 237, 1113, 1114, 1187, 1186
 163, 165, 166, 239, 238, 1114, 1115, 1188, 1187
 164, 166, 167, 240, 239, 1115, 1116, 1189, 1188
 165, 167, 168, 241, 240, 1116, 1117, 1190, 1189
 166, 168, 169, 242, 241, 1117, 1118, 1191, 1190
 167, 169, 170, 243, 242, 1118, 1119, 1192, 1191
 168, 170, 171, 244, 243, 1119, 1120, 1193, 1192
 169, 171, 172, 245, 244, 1120, 1121, 1194, 1193
 170, 172, 173, 246, 245, 1121, 1122, 1195, 1194
 171, 173, 174, 247, 246, 1122, 1123, 1196, 1195
 172, 174, 175, 248, 247, 1123, 1124, 1197, 1196
 173, 175, 176, 249, 248, 1124, 1125, 1198, 1197
 174, 176, 177, 250, 249, 1125, 1126, 1199, 1198
 175, 177, 178, 251, 250, 1126, 1127, 1200, 1199
 176, 178, 179, 252, 251, 1127, 1128, 1201, 1200
 177, 179, 180, 253, 252, 1128, 1129, 1202, 1201
 178, 180, 181, 254, 253, 1129, 1130, 1203, 1202
 179, 181, 182, 255, 254, 1130, 1131, 1204, 1203
 180, 182, 183, 256, 255, 1131, 1132, 1205, 1204
 181, 183, 184, 257, 256, 1132, 1133, 1206, 1205
 182, 184, 185, 258, 257, 1133, 1134, 1207, 1206
 183, 185, 186, 259, 258, 1134, 1135, 1208, 1207
 184, 186, 187, 260, 259, 1135, 1136, 1209, 1208
 185, 187, 188, 261, 260, 1136, 1137, 1210, 1209
 186, 188, 189, 262, 261, 1137, 1138, 1211, 1210
 187, 189, 190, 263, 262, 1138, 1139, 1212, 1211
 188, 190, 191, 264, 263, 1139, 1140, 1213, 1212
 189, 191, 192, 265, 264, 1140, 1141, 1214, 1213
 190, 192, 193, 266, 265, 1141, 1142, 1215, 1214
 191, 193, 194, 267, 266, 1142, 1143, 1216, 1215
 192, 194, 195, 268, 267, 1143, 1144, 1217, 1216
 193, 195, 196, 269, 268, 1144, 1145, 1218, 1217
 194, 196, 197, 270, 269, 1145, 1146, 1219, 1218
 195, 197, 198, 271, 270, 1146, 1147, 1220, 1219
 196, 198, 199, 272, 271, 1147, 1148, 1221, 1220
 197, 199, 200, 273, 272, 1148, 1149, 1222, 1221
 198, 200, 201, 274, 273, 1149, 1150, 1223, 1222
 199, 201, 202, 275, 274, 1150, 1151, 1224, 1223
 200, 202, 203, 276, 275, 1151, 1152, 1225, 1224
 201, 203, 204, 277, 276, 1152, 1153, 1226, 1225
 202, 204, 205, 278, 277, 1153, 1154, 1227, 1226
 203, 205, 206, 279, 278, 1154, 1155, 1228, 1227
 204, 206, 207, 280, 279, 1155, 1156, 1229, 1228
 205, 207, 208, 281, 280, 1156, 1157, 1230, 1229
 206, 208, 209, 282, 281, 1157, 1158, 1231, 1230
 207, 209, 210, 283, 282, 1158, 1159, 1232, 1231
 208, 210, 211, 284, 283, 1159, 1160, 1233, 1232
 209, 211, 212, 285, 284, 1160, 1161, 1234, 1233
 210, 212, 213, 286, 285, 1161, 1162, 1235, 1234
 211, 213, 214, 287, 286, 1162, 1163, 1236, 1235
 212, 214, 215, 288, 287, 1163, 1164, 1237, 1236
 213, 215, 216, 289, 288, 1164, 1165, 1238, 1237
 214, 216, 217, 290, 289, 1165, 1166, 1239, 1238
 215, 217, 218, 291, 290, 1166, 1167, 1240, 1239
 216, 218, 219, 292, 291, 1167, 1168, 1241, 1240
 217, 220, 221, 294, 293, 1169, 1170, 1243, 1242
 218, 221, 222, 295, 294, 1170, 1171, 1244, 1243
 219, 222, 223, 296, 295, 1171, 1172, 1245, 1244
 220, 223, 224, 297, 296, 1172, 1173, 1246, 1245
 221, 224, 225, 298, 297, 1173, 1174, 1247, 1246
 222, 225, 226, 299, 298, 1174, 1175, 1248, 1247
 223, 226, 227, 300, 299, 1175, 1176, 1249, 1248
 224, 227, 228, 301, 300, 1176, 1177, 1250, 1249
 225, 228, 229, 302, 301, 1177, 1178, 1251, 1250
 226, 229, 230, 303, 302, 1178, 1179, 1252, 1251
 227, 230, 231, 304, 303, 1179, 1180, 1253, 1252
 228, 231, 232, 305, 304, 1180, 1181, 1254, 1253
 229, 232, 233, 306, 305, 1181, 1182, 1255, 1254
 230, 233, 234, 307, 306, 1182, 1183, 1256, 1255
 231, 234, 235, 308, 307, 1183, 1184, 1257, 1256
 232, 235, 236, 309, 308, 1184, 1185, 1258, 1257
 233, 236, 237, 310, 309, 1185, 1186, 1259, 1258
 234, 237, 238, 311, 310, 1186, 1187, 1260, 1259
 235, 238, 239, 312, 311, 1187, 1188, 1261, 1260
 236, 239, 240, 313, 312, 1188, 1189, 1262, 1261
 237, 240, 241, 314, 313, 1189, 1190, 1263, 1262
 238, 241, 242, 315, 314, 1190, 1191, 1264, 1263
 239, 242, 243, 316, 315, 1191, 1192, 1265, 1264
 240, 243, 244, 317, 316, 1192, 1193, 1266, 1265
 241, 244, 245, 318, 317, 1193, 1194, 1267, 1266
 242, 245, 246, 319, 318, 1194, 1195, 1268, 1267
 243, 246, 247, 320, 319, 1195, 1196, 1269, 1268
 244, 247, 248, 321, 320, 1196, 1197, 1270, 1269
 245, 248, 249, 322, 321, 1197, 1198, 1271, 1270
 246, 249, 250, 323, 322, 1198, 1199, 1272, 1271
 247, 250, 251, 324, 323, 1199, 1200, 1273, 1272
 248, 251, 252, 325, 324, 1200, 1201, 1274, 1273
 249, 252, 253, 326, 325, 1201, 1202, 1275, 1274
 250, 253, 254, 327, 326, 1202, 1203, 1276, 1275
 251, 254, 255, 328, 327, 1203, 1204, 1277, 1276
 252, 255, 256, 329, 328, 1204, 1205, 1278, 1277
 253, 256, 257, 330, 329, 1205, 1206, 1279, 1278
 254, 257, 258, 331, 330, 1206, 1207, 1280, 1279
 255, 258, 259, 332, 331, 1207, 1208, 1281, 1280
 256, 259, 260, 333, 332, 1208, 1209, 1282, 1281
 257, 260, 261, 334, 333, 1209, 1210, 1283, 1282
 258, 261, 262, 335, 334, 1210, 1211, 1284, 1283
 259, 262, 263, 336, 335, 1211, 1212, 1285, 1284
 260, 263, 264, 337, 336, 1212, 1213, 1286, 1285
 261, 264, 265, 338, 337, 1213, 1214, 1287, 1286
 262, 265, 266, 339, 338, 1214, 1215, 1288, 1287
 263, 266, 267, 340, 339, 1215, 1216, 1289, 1288
 264, 267, 268, 341, 340, 1216, 1217, 1290, 1289
 265, 268, 269, 342, 341, 1217, 1218, 1291, 1290
 266, 269, 270, 343, 342, 1218, 1219, 1292, 1291
 267, 270, 271, 344, 343, 1219, 1220, 1293, 1292
 268, 271, 272, 345, 344, 1220, 1221, 1294, 1293
 269, 272, 273, 346, 345, 1221, 1222, 1295, 1294
 270, 273, 274, 347, 346, 1222, 1223, 1296, 1295
 271, 274, 275, 348, 347, 1223, 1224, 1297, 1296
 272, 275, 276, 349, 348, 1224, 1225, 1298, 1297
 273, 276, 277, 350, 349, 1225, 1226, 1299, 1298
 274, 277, 278, 351, 350, 1226, 1227, 1300, 1299
 275, 278, 279, 352, 351, 1227, 1228, 1301, 1300
 276, 279, 280, 353, 352, 1228, 1229, 1302, 1301
 277, 280, 281, 354, 353, 1229, 1230, 1303, 1302
 278, 281, 282, 355, 354, 1230, 1231, 1304, 1303
 279, 282, 283, 356, 355, 1231, 1232, 1305, 1304
 280, 283, 284, 357, 356, 1232, 1233, 1306, 1305
 281, 284, 285, 358, 357, 1233, 1234, 1307, 1306
 282, 285, 286, 359, 358, 1234, 1235, 1308, 1307
 283, 286, 287, 360, 359, 1235, 1236, 1309, 1308
 284, 287, 288, 361, 360, 1236, 1237, 1310, 1309
 285, 288, 289, 362, 361, 1237, 1238, 1311, 1310
 286, 289, 290, 363, 362, 1238, 1239, 1312, 1311
 287, 290, 291, 364, 363, 1239, 1240, 1313, 1312
 288, 291, 292, 365, 364, 1240, 1241, 1314, 1313
 289, 293, 294, 367, 366, 1242, 1243, 1316, 1315
 290, 294, 295, 368, 367, 1243, 1244, 1317, 1316
 291, 295, 296, 369, 368, 1244, 1245, 1318, 1317
 292, 296, 297, 370, 369, 1245, 1246, 1319, 1318
 293, 297, 298, 371, 370, 1246, 1247, 1320, 1319
 294, 298, 299, 372, 371, 1247, 1248, 1321, 1320
 295, 299, 300, 373, 372, 1248, 1249, 1322, 1321
 296, 300, 301, 374, 373, 1249, 1250, 1323, 1322
 297, 301, 302, 375, 374, 1250, 1251, 1324, 1323
 298, 302, 303, 376, 375, 1251, 1252, 1325, 1324
 299, 303, 304, 377, 376, 1252, 1253, 1326, 1325
 300, 304, 305, 378, 377, 1253, 1254, 1327, 1326
 301, 305, 306, 379, 378, 1254, 1255, 1328, 1327
 302, 306, 307, 380, 379, 1255, 1256, 1329, 1328
 303, 307, 308, 381, 380, 1256, 1257, 1330, 1329
 304, 308, 309, 382, 381, 1257, 1258, 1331, 1330
 305, 309, 310, 383, 382, 1258, 1259, 1332, 1331
 306, 310, 311, 384, 383, 1259, 1260, 1333, 1332
 307, 311, 312, 385, 384, 1260, 1261, 1334, 1333
 308, 312, 313, 386, 385, 1261, 1262, 1335, 1334
 309, 313, 314, 387, 386, 1262, 1263, 1336, 1335
 310, 314, 315, 388, 387, 1263, 1264, 1337, 1336
 311, 315, 316, 389, 388, 1264, 1265, 1338, 1337
 312, 316, 317, 390, 389, 1265, 1266, 1339, 1338
 313, 317, 318, 391, 390, 1266, 1267, 1340, 1339
 314, 318, 319, 392, 391, 1267, 1268, 1341, 1340
 315, 319, 320, 393, 392, 1268, 1269, 1342, 1341
 316, 320, 321, 394, 393, 1269, 1270, 1343, 1342
 317, 321, 322, 395, 394, 1270, 1271, 1344, 1343
 318, 322, 323, 396, 395, 1271, 1272, 1345, 1344
 319, 323, 324, 397, 396, 1272, 1273, 1346, 1345
 320, 324, 325, 398, 397, 1273, 1274, 1347, 1346
 321, 325, 326, 399, 398, 1274, 1275, 1348, 1347
 322, 326, 327, 400, 399, 1275, 1276, 1349, 1348
 323, 327, 328, 401, 400, 1276, 1277, 1350, 1349
 324, 328, 329, 402, 401, 1277, 1278, 1351, 1350
 325, 329, 330, 403, 402, 1278, 1279, 1352, 1351
 326, 330, 331, 404, 403, 1279, 1280, 1353, 1352
 327, 331, 332, 405, 404, 1280, 1281, 1354, 1353
 328, 332, 333, 406, 405, 1281, 1282, 1355, 1354
 329, 333, 334, 407, 406, 1282, 1283, 1356, 1355
 330, 334, 335, 408, 407, 1283, 1284, 1357, 1356
 331, 335, 336, 409, 408, 1284, 1285, 1358, 1357
 332, 336, 337, 410, 409, 1285, 1286, 1359, 1358
 333, 337, 338, 411, 410, 1286, 1287, 1360, 1359
 334, 338, 339, 412, 411, 1287, 1288, 1361, 1360
 335, 339, 340, 413, 412, 1288, 1289, 1362, 1361
 336, 340, 341, 414, 413, 1289, 1290, 1363, 1362
 337, 341, 342, 415, 414, 1290, 1291, 1364, 1363
 338, 342, 343, 416, 415, 1291, 1292, 1365, 1364
 339, 343, 344, 417, 416, 1292, 1293, 1366, 1365
 340, 344, 345, 418, 417, 1293, 1294, 1367, 1366
 341, 345, 346, 419, 418, 1294, 1295, 1368, 1367
 342, 346, 347, 420, 419, 1295, 1296, 1369, 1368
 343, 347, 348, 421, 420, 1296, 1297, 1370, 1369
 344, 348, 349, 422, 421, 1297, 1298, 1371, 1370
 345, 349, 350, 423, 422, 1298, 1299, 1372, 1371
 346, 350, 351, 424, 423, 1299, 1300, 1373, 1372
 347, 351, 352, 425, 424, 1300, 1301, 1374, 1373
 348, 352, 353, 426, 425, 1301, 1302, 1375, 1374
 349, 353, 354, 427, 426, 1302, 1303, 1376, 1375
 350, 354, 355, 428, 427, 1303, 1304, 1377, 1376
 351, 355, 356, 429, 428, 1304, 1305, 1378, 1377
 352, 356, 357, 430, 429, 1305, 1306, 1379, 1378
 353, 357, 358, 431, 430, 1306, 1307, 1380, 1379
 354, 358, 359, 432, 431, 1307, 1308, 1381, 1380
 355, 359, 360, 433, 432, 1308, 1309, 1382, 1381
 356, 360, 361, 434, 433, 1309, 1310, 1383, 1382
 357, 361, 362, 435, 434, 1310, 1311, 1384, 1383
 358, 362, 363, 436, 435, 1311, 1312, 1385, 1384
 359, 363, 364, 437, 436, 1312, 1313, 1386, 1385
 360, 364, 365, 438, 437, 1313, 1314, 1387, 1386
 361, 366, 367, 440, 439, 1315, 1316, 1389, 1388
 362, 367, 368, 441, 440, 1316, 1317, 1390, 1389
 363, 368, 369, 442, 441, 1317, 1318, 1391, 1390
 364, 369, 370, 443, 442, 1318, 1319, 1392, 1391
 365, 370, 371, 444, 443, 1319, 1320, 1393, 1392
 366, 371, 372, 445, 444, 1320, 1321, 1394, 1393
 367, 372, 373, 446, 445, 1321, 1322, 1395, 1394
 368, 373, 374, 447, 446, 1322, 1323, 1396, 1395
 369, 374, 375, 448, 447, 1323, 1324, 1397, 1396
 370, 375, 376, 449, 448, 1324, 1325, 1398, 1397
 371, 376, 377, 450, 449, 1325, 1326, 1399, 1398
 372, 377, 378, 451, 450, 1326, 1327, 1400, 1399
 373, 378, 379, 452, 451, 1327, 1328, 1401, 1400
 374, 379, 380, 453, 452, 1328, 1329, 1402, 1401
 375, 380, 381, 454, 453, 1329, 1330, 1403, 1402
 376, 381, 382, 455, 454, 1330, 1331, 1404, 1403
 377, 382, 383, 456, 455, 1331, 1332, 1405, 1404
 378, 383, 384, 457, 456, 1332, 1333, 1406, 1405
 379, 384, 385, 458, 457, 1333, 1334, 1407, 1406
 380, 385, 386, 459, 458, 1334, 1335, 1408, 1407
 381, 386, 387, 460, 459, 1335, 1336, 1409, 1408
 382, 387, 388, 461, 460, 1336, 1337, 1410, 1409
 383, 388, 389, 462, 461, 1337, 1338, 1411, 1410
 384, 389, 390, 463, 462, 1338, 1339, 1412, 1411
 385, 390, 391, 464, 463, 1339, 1340, 1413, 1412
 386, 391, 392, 465, 464, 1340, 1341, 1414, 1413
 387, 392, 393, 466, 465, 1341, 1342, 1415, 1414
 388, 393, 394, 467, 466, 1342, 1343, 1416, 1415
 389, 394, 395, 468, 467, 1343, 1344, 1417, 1416
 390, 395, 396, 469, 468, 1344, 1345, 1418, 1417
 391, 396, 397, 470, 469, 1345, 1346, 1419, 1418
 392, 397, 398, 471, 470, 1346, 1347, 1420, 1419
 393, 398, 399, 472, 471, 1347, 1348, 1421, 1420
 394, 399, 400, 473, 472, 1348, 1349, 1422, 1421
 395, 400, 401, 474, 473, 1349, 1350, 1423, 1422
 396, 401, 402, 475, 474, 1350, 1351, 1424, 1423
 397, 402, 403, 476, 475, 1351, 1352, 1425, 1424
 398, 403, 404, 477, 476, 1352, 1353, 1426, 1425
 399, 404, 405, 478, 477, 1353, 1354, 1427, 1426
 400, 405, 406, 479, 478, 1354, 1355, 1428, 1427
 401, 406, 407, 480, 479, 1355, 1356, 1429, 1428
 402, 407, 408, 481, 480, 1356, 1357, 1430, 1429
 403, 408, 409, 482, 481, 1357, 1358, 1431, 1430
 404, 409, 410, 483, 482, 1358, 1359, 1432, 1431
 405, 410, 411, 484, 483, 1359, 1360, 1433, 1432
 406, 411, 412, 485, 484, 1360, 1361, 1434, 1433
 407, 412, 413, 486, 485, 1361, 1362, 1435, 1434
 408, 413, 414, 487, 486, 1362, 1363, 1436, 1435
 409, 414, 415, 488, 487, 1363, 1364, 1437, 1436
 410, 415, 416, 489, 488, 1364, 1365, 1438, 1437
 411, 416, 417, 490, 489, 1365, 1366, 1439, 1438
 412, 417, 418, 491, 490, 1366, 1367, 1440, 1439
 413, 418, 419, 492, 491, 1367, 1368, 1441, 1440
 414, 419, 420, 493, 492, 1368, 1369, 1442, 1441
 415, 420, 421, 494, 493, 1369, 1370, 1443, 1442
 416, 421, 422, 495, 494, 1370, 1371, 1444, 1443
 417, 422, 423, 496, 495, 1371, 1372, 1445, 1444
 418, 423, 424, 497, 496, 1372, 1373, 1446, 1445
 419, 424, 425, 498, 497, 1373, 1374, 1447, 1446
 420, 425, 426, 499, 498, 1374, 1375, 1448, 1447
 421, 426, 427, 500, 499, 1375, 1376, 1449, 1448
 422, 427, 428, 501, 500, 1376, 1377, 1450, 1449
 423, 428, 429, 502, 501, 1377, 1378, 1451, 1450
 424, 429, 430, 503, 502, 1378, 1379, 1452, 1451
 425, 430, 431, 504, 503, 1379, 1380, 1453, 1452
 426, 431, 432, 505, 504, 1380, 1381, 1454, 1453
 427, 432, 433, 506, 505, 1381, 1382, 1455, 1454
 428, 433, 434, 507, 506, 1382, 1383, 1456, 1455
 429, 434, 435, 508, 507, 1383, 1384, 1457, 1456
 430, 435, 436, 509, 508, 1384, 1385, 1458, 1457
 431, 436, 437, 510, 509, 1385, 1386, 1459, 1458
 432, 437, 438, 511, 510, 1386, 1387, 1460, 1459
 433, 439, 440, 513, 512, 1388, 1389, 1462, 1461
 434, 440, 441, 514, 513, 1389, 1390, 1463, 1462
 435, 441, 442, 515, 514, 1390, 1391, 1464, 1463
 436, 442, 443, 516, 515, 1391, 1392, 1465, 1464
 437, 443, 444, 517, 516, 1392, 1393, 1466, 1465
 438, 444, 445, 518, 517, 1393, 1394, 1467, 1466
 439, 445, 446, 519, 518, 1394, 1395, 1468, 1467
 440, 446, 447, 520, 519, 1395, 1396, 1469, 1468
 441, 447, 448, 521, 520, 1396, 1397, 1470, 1469
 442, 448, 449, 522, 521, 1397, 1398, 1471, 1470
 443, 449, 450, 523, 522, 1398, 1399, 1472, 1471
 444, 450, 451, 524, 523, 1399, 1400, 1473, 1472
 445, 451, 452, 525, 524, 1400, 1401, 1474, 1473
 446, 452, 453, 526, 525, 1401, 1402, 1475, 1474
 447, 453, 454, 527, 526, 1402, 1403, 1476, 1475
 448, 454, 455, 528, 527, 1403, 1404, 1477, 1476
 449, 455, 456, 529, 528, 1404, 1405, 1478, 1477
 450, 456, 457, 530, 529, 1405, 1406, 1479, 1478
 451, 457, 458, 531, 530, 1406, 1407, 1480, 1479
 452, 458, 459, 532, 531, 1407, 1408, 1481, 1480
 453, 459, 460, 533, 532, 1408, 1409, 1482, 1481
 454, 460, 461, 534, 533, 1409, 1410, 1483, 1482
 455, 461, 462, 535, 534, 1410, 1411, 1484, 1483
 456, 462, 463, 536, 535, 1411, 1412, 1485, 1484
 457, 463, 464, 537, 536, 1412, 1413, 1486, 1485
 458, 464, 465, 538, 537, 1413, 1414, 1487, 1486
 459, 465, 466, 539, 538, 1414, 1415, 1488, 1487
 460, 466, 467, 540, 539, 1415, 1416, 1489, 1488
 461, 467, 468, 541, 540, 1416, 1417, 1490, 1489
 462, 468, 469, 542, 541, 1417, 1418, 1491, 1490
 463, 469, 470, 543, 542, 1418, 1419, 1492, 1491
 464, 470, 471, 544, 543, 1419, 1420, 1493, 1492
 465, 471, 472, 545, 544, 1420, 1421, 1494, 1493
 466, 472, 473, 546, 545, 1421, 1422, 1495, 1494
 467, 473, 474, 547, 546, 1422, 1423, 1496, 1495
 468, 474, 475, 548, 547, 1423, 1424, 1497, 1496
 469, 475, 476, 549, 548, 1424, 1425, 1498, 1497
 470, 476, 477, 550, 549, 1425, 1426, 1499, 1498
 471, 477, 478, 551, 550, 1426, 1427, 1500, 1499
 472, 478, 479, 552, 551, 1427, 1428, 1501, 1500
 473, 479, 480, 553, 552, 1428, 1429, 1502, 1501
 474, 480, 481, 554, 553, 1429, 1430, 1503, 1502
 475, 481, 482, 555, 554, 1430, 1431, 1504, 1503
 476, 482, 483, 556, 555, 1431, 1432, 1505, 1504
 477, 483, 484, 557, 556, 1432, 1433, 1506, 1505
 478, 484, 485, 558, 557, 1433, 1434, 1507, 1506
 479, 485, 486, 559, 558, 1434, 1435, 1508, 1507
 480, 486, 487, 560, 559, 1435, 1436, 1509, 1508
 481, 487, 488, 561, 560, 1436, 1437, 1510, 1509
 482, 488, 489, 562, 561, 1437, 1438, 1511, 1510
 483, 489, 490, 563, 562, 1438, 1439, 1512, 1511
 484, 490, 491, 564, 563, 1439, 1440, 1513, 1512
 485, 491, 492, 565, 564, 1440, 1441, 1514, 1513
 486, 492, 493, 566, 565, 1441, 1442, 1515, 1514
 487, 493, 494, 567, 566, 1442, 1443, 1516, 1515
 488, 494, 495, 568, 567, 1443, 1444, 1517, 1516
 489, 495, 496, 569, 568, 1444, 1445, 1518, 1517
 490, 496, 497, 570, 569, 1445, 1446, 1519, 1518
 491, 497, 498, 571, 570, 1446, 1447, 1520, 1519
 492, 498, 499, 572, 571, 1447, 1448, 1521, 1520
 493, 499, 500, 573, 572, 1448, 1449, 1522, 1521
 494, 500, 501, 574, 573, 1449, 1450, 1523, 1522
 495, 501, 502, 575, 574, 1450, 1451, 1524, 1523
 496, 502, 503, 576, 575, 1451, 1452, 1525, 1524
 497, 503, 504, 577, 576, 1452, 1453, 1526, 1525
 498, 504, 505, 578, 577, 1453, 1454, 1527, 1526
 499, 505, 506, 579, 578, 1454, 1455, 1528, 1527
 500, 506, 507, 580, 579, 1455, 1456, 1529, 1528
 501, 507, 508, 581, 580, 1456, 1457, 1530, 1529
 502, 508, 509, 582, 581, 1457, 1458, 1531, 1530
 503, 509, 510, 583, 582, 1458, 1459, 1532, 1531
 504, 510, 511, 584, 583, 1459, 1460, 1533, 1532
 505, 512, 513, 586, 585, 1461, 1462, 1535, 1534
 506, 513, 514, 587, 586, 1462, 1463, 1536, 1535
 507, 514, 515, 588, 587, 1463, 1464, 1537, 1536
 508, 515, 516, 589, 588, 1464, 1465, 1538, 1537
 509, 516, 517, 590, 589, 1465, 1466, 1539, 1538
 510, 517, 518, 591, 590, 1466, 1467, 1540, 1539
 511, 518, 519, 592, 591, 1467, 1468, 1541, 1540
 512, 519, 520, 593, 592, 1468, 1469, 1542, 1541
 513, 520, 521, 594, 593, 1469, 1470, 1543, 1542
 514, 521, 522, 595, 594, 1470, 1471, 1544, 1543
 515, 522, 523, 596, 595, 1471, 1472, 1545, 1544
 516, 523, 524, 597, 596, 1472, 1473, 1546, 1545
 517, 524, 525, 598, 597, 1473, 1474, 1547, 1546
 518, 525, 526, 599, 598, 1474, 1475, 1548, 1547
 519, 526, 527, 600, 599, 1475, 1476, 1549, 1548
 520, 527, 528, 601, 600, 1476, 1477, 1550, 1549
 521, 528, 529, 602, 601, 1477, 1478, 1551, 1550
 522, 529, 530, 603, 602, 1478, 1479, 1552, 1551
 523, 530, 531, 604, 603, 1479, 1480, 1553, 1552
 524, 531, 532, 605, 604, 1480, 1481, 1554, 1553
 525, 532, 533, 606, 605, 1481, 1482, 1555, 1554
 526, 533, 534, 607, 606, 1482, 1483, 1556, 1555
 527, 534, 535, 608, 607, 1483, 1484, 1557, 1556
 528, 535, 536, 609, 608, 1484, 1485, 1558, 1557
 529, 536, 537, 610, 609, 1485, 1486, 1559, 1558
 530, 537, 538, 611, 610, 1486, 1487, 1560, 1559
 531, 538, 539, 612, 611, 1487, 1488, 1561, 1560
 532, 539, 540, 613, 612, 1488, 1489, 1562, 1561
 533, 540, 541, 614, 613, 1489, 1490, 1563, 1562
 534, 541, 542, 615, 614, 1490, 1491, 1564, 1563
 535, 542, 543, 616, 615, 1491, 1492, 1565, 1564
 536, 543, 544, 617, 616, 1492, 1493, 1566, 1565
 537, 544, 545, 618, 617, 1493, 1494, 1567, 1566
 538, 545, 546, 619, 618, 1494, 1495, 1568, 1567
 539, 546, 547, 620, 619, 1495, 1496, 1569, 1568
 540, 547, 548, 621, 620, 1496, 1497, 1570, 1569
 541, 548, 549, 622, 621, 1497, 1498, 1571, 1570
 542, 549, 550, 623, 622, 1498, 1499, 1572, 1571
 543, 550, 551, 624, 623, 1499, 1500, 1573, 1572
 544, 551, 552, 625, 624, 1500, 1501, 1574, 1573
 545, 552, 553, 626, 625, 1501, 1502, 1575, 1574
 546, 553, 554, 627, 626, 1502, 1503, 1576, 1575
 547, 554, 555, 628, 627, 1503, 1504, 1577, 1576
 548, 555, 556, 629, 628, 1504, 1505, 1578, 1577
 549, 556, 557, 630, 629, 1505, 1506, 1579, 1578
 550, 557, 558, 631, 630, 1506, 1507, 1580, 1579
 551, 558, 559, 632, 631, 1507, 1508, 1581, 1580
 552, 559, 560, 633, 632, 1508, 1509, 1582, 1581
 553, 560, 561, 634, 633, 1509, 1510, 1583, 1582
 554, 561, 562, 635, 634, 1510, 1511, 1584, 1583
 555, 562, 563, 636, 635, 1511, 1512, 1585, 1584
 556, 563, 564, 637, 636, 1512, 1513, 1586, 1585
 557, 564, 565, 638, 637, 1513, 1514, 1587, 1586
 558, 565, 566, 639, 638, 1514, 1515, 1588, 1587
 559, 566, 567, 640, 639, 1515, 1516, 1589, 1588
 560, 567, 568, 641, 640, 1516, 1517, 1590, 1589
 561, 568, 569, 642, 641, 1517, 1518, 1591, 1590
 562, 569, 570, 643, 642, 1518, 1519, 1592, 1591
 563, 570, 571, 644, 643, 1519, 1520, 1593, 1592
 564, 571, 572, 645, 644, 1520, 1521, 1594, 1593
 565, 572, 573, 646, 645, 1521, 1522, 1595, 1594
 566, 573, 574, 647, 646, 1522, 1523, 1596, 1595
 567, 574, 575, 648, 647, 1523, 1524, 1597, 1596
 568, 575, 576, 649, 648, 1524, 1525, 1598, 1597
 569, 576, 577, 650, 649, 1525, 1526, 1599, 1598
 570, 577, 578, 651, 650, 1526, 1527, 1600, 1599
 571, 578, 579, 652, 651, 1527, 1528, 1601, 1600
 572, 579, 580, 653, 652, 1528, 1529, 1602, 1601
 573, 580, 581, 654, 653, 1529, 1530, 1603, 1602
 574, 581, 582, 655, 654, 1530, 1531, 1604, 1603
 575, 582, 583, 656, 655, 1531, 1532, 1605, 1604
 576, 583, 584, 657, 656, 1532, 1533, 1606, 1605
 577, 585, 586, 659, 658, 1534, 1535, 1608, 1607
 578, 586, 587, 660, 659, 1535, 1536, 1609, 1608
 579, 587, 588, 661, 660, 1536, 1537, 1610, 1609
 580, 588, 589, 662, 661, 1537, 1538, 1611, 1610
 581, 589, 590, 663, 662, 1538, 1539, 1612, 1611
 582, 590, 591, 664, 663, 1539, 1540, 1613, 1612
 583, 591, 592, 665, 664, 1540, 1541, 1614, 1613
 584, 592, 593, 666, 665, 1541, 1542, 1615, 1614
 585, 593, 594, 667, 666, 1542, 1543, 1616, 1615
 586, 594, 595, 668, 667, 1543, 1544, 1617, 1616
 587, 595, 596, 669, 668, 1544, 1545, 1618, 1617
 588, 596, 597, 670, 669, 1545, 1546, 1619, 1618
 589, 597, 598, 671, 670, 1546, 1547, 1620, 1619
 590, 598, 599, 672, 671, 1547, 1548, 1621, 1620
 591, 599, 600, 673, 672, 1548, 1549, 1622, 1621
 592, 600, 601, 674, 673, 1549, 1550, 1623, 1622
 593, 601, 602, 675, 674, 1550, 1551, 1624, 1623
 594, 602, 603, 676, 675, 1551, 1552, 1625, 1624
 595, 603, 604, 677, 676, 1552, 1553, 1626, 1625
 596, 604, 605, 678, 677, 1553, 1554, 1627, 1626
 597, 605, 606, 679, 678, 1554, 1555, 1628, 1627
 598, 606, 607, 680, 679, 1555, 1556, 1629, 1628
 599, 607, 608, 681, 680, 1556, 1557, 1630, 1629
 600, 608, 609, 682, 681, 1557, 1558, 1631, 1630
 601, 609, 610, 683, 682, 1558, 1559, 1632, 1631
 602, 610, 611, 684, 683, 1559, 1560, 1633, 1632
 603, 611, 612, 685, 684, 1560, 1561, 1634, 1633
 604, 612, 613, 686, 685, 1561, 1562, 1635, 1634
 605, 613, 614, 687, 686, 1562, 1563, 1636, 1635
 606, 614, 615, 688, 687, 1563, 1564, 1637, 1636
 607, 615, 616, 689, 688, 1564, 1565, 1638, 1637
 608, 616, 617, 690, 689, 1565, 1566, 1639, 1638
 609, 617, 618, 691, 690, 1566, 1567, 1640, 1639
 610, 618, 619, 692, 691, 1567, 1568, 1641, 1640
 611, 619, 620, 693, 692, 1568, 1569, 1642, 1641
 612, 620, 621, 694, 693, 1569, 1570, 1643, 1642
 613, 621, 622, 695, 694, 1570, 1571, 1644, 1643
 614, 622, 623, 696, 695, 1571, 1572, 1645, 1644
 615, 623, 624, 697, 696, 1572, 1573, 1646, 1645
 616, 624, 625, 698, 697, 1573, 1574, 1647, 1646
 617, 625, 626, 699, 698, 1574, 1575, 1648, 1647
 618, 626, 627, 700, 699, 1575, 1576, 1649, 1648
 619, 627, 628, 701, 700, 1576, 1577, 1650, 1649
 620, 628, 629, 702, 701, 1577, 1578, 1651, 1650
 621, 629, 630, 703, 702, 1578, 1579, 1652, 1651
 622, 630, 631, 704, 703, 1579, 1580, 1653, 1652
 623, 631, 632, 705, 704, 1580, 1581, 1654, 1653
 624, 632, 633, 706, 705, 1581, 1582, 1655, 1654
 625, 633, 634, 707, 706, 1582, 1583, 1656, 1655
 626, 634, 635, 708, 707, 1583, 1584, 1657, 1656
 627, 635, 636, 709, 708, 1584, 1585, 1658, 1657
 628, 636, 637, 710, 709, 1585, 1586, 1659, 1658
 629, 637, 638, 711, 710, 1586, 1587, 1660, 1659
 630, 638, 639, 712, 711, 1587, 1588, 1661, 1660
 631, 639, 640, 713, 712, 1588, 1589, 1662, 1661
 632, 640, 641, 714, 713, 1589, 1590, 1663, 1662
 633, 641, 642, 715, 714, 1590, 1591, 1664, 1663
 634, 642, 643, 716, 715, 1591, 1592, 1665, 1664
 635, 643, 644, 717, 716, 1592, 1593, 1666, 1665
 636, 644, 645, 718, 717, 1593, 1594, 1667, 1666
 637, 645, 646, 719, 718, 1594, 1595, 1668, 1667
 638, 646, 647, 720, 719, 1595, 1596, 1669, 1668
 639, 647, 648, 721, 720, 1596, 1597, 1670, 1669
 640, 648, 649, 722, 721, 1597, 1598, 1671, 1670
 641, 649, 650, 723, 722, 1598, 1599, 1672, 1671
 642, 650, 651, 724, 723, 1599, 1600, 1673, 1672
 643, 651, 652, 725, 724, 1600, 1601, 1674, 1673
 644, 652, 653, 726, 725, 1601, 1602, 1675, 1674
 645, 653, 654, 727, 726, 1602, 1603, 1676, 1675
 646, 654, 655, 728, 727, 1603, 1604, 1677, 1676
 647, 655, 656, 729, 728, 1604, 1605, 1678, 1677
 648, 656, 657, 730, 729, 1605, 1606, 1679, 1678
 649, 658, 659, 732, 731, 1607, 1608, 1681, 1680
 650, 659, 660, 733, 732, 1608, 1609, 1682, 1681
 651, 660, 661, 734, 733, 1609, 1610, 1683, 1682
 652, 661, 662, 735, 734, 1610, 1611, 1684, 1683
 653, 662, 663, 736, 735, 1611, 1612, 1685, 1684
 654, 663, 664, 737, 736, 1612, 1613, 1686, 1685
 655, 664, 665, 738, 737, 1613, 1614, 1687, 1686
 656, 665, 666, 739, 738, 1614, 1615, 1688, 1687
 657, 666, 667, 740, 739, 1615, 1616, 1689, 1688
 658, 667, 668, 741, 740, 1616, 1617, 1690, 1689
 659, 668, 669, 742, 741, 1617, 1618, 1691, 1690
 660, 669, 670, 743, 742, 1618, 1619, 1692, 1691
 661, 670, 671, 744, 743, 1619, 1620, 1693, 1692
 662, 671, 672, 745, 744, 1620, 1621, 1694, 1693
 663, 672, 673, 746, 745, 1621, 1622, 1695, 1694
 664, 673, 674, 747, 746, 1622, 1623, 1696, 1695
 665, 674, 675, 748, 747, 1623, 1624, 1697, 1696
 666, 675, 676, 749, 748, 1624, 1625, 1698, 1697
 667, 676, 677, 750, 749, 1625, 1626, 1699, 1698
 668, 677, 678, 751, 750, 1626, 1627, 1700, 1699
 669, 678, 679, 752, 751, 1627, 1628, 1701, 1700
 670, 679, 680, 753, 752, 1628, 1629, 1702, 1701
 671, 680, 681, 754, 753, 1629, 1630, 1703, 1702
 672, 681, 682, 755, 754, 1630, 1631, 1704, 1703
 673, 682, 683, 756, 755, 1631, 1632, 1705, 1704
 674, 683, 684, 757, 756, 1632, 1633, 1706, 1705
 675, 684, 685, 758, 757, 1633, 1634, 1707, 1706
 676, 685, 686, 759, 758, 1634, 1635, 1708, 1707
 677, 686, 687, 760, 759, 1635, 1636, 1709, 1708
 678, 687, 688, 761, 760, 1636, 1637, 1710, 1709
 679, 688, 689, 762, 761, 1637, 1638, 1711, 1710
 680, 689, 690, 763, 762, 1638, 1639, 1712, 1711
 681, 690, 691, 764, 763, 1639, 1640, 1713, 1712
 682, 691, 692, 765, 764, 1640, 1641, 1714, 1713
 683, 692, 693, 766, 765, 1641, 1642, 1715, 1714
 684, 693, 694, 767, 766, 1642, 1643, 1716, 1715
 685, 694, 695, 768, 767, 1643, 1644, 1717, 1716
 686, 695, 696, 769, 768, 1644, 1645, 1718, 1717
 687, 696, 697, 770, 769, 1645, 1646, 1719, 1718
 688, 697, 698, 771, 770, 1646, 1647, 1720, 1719
 689, 698, 699, 772, 771, 1647, 1648, 1721, 1720
 690, 699, 700, 773, 772, 1648, 1649, 1722, 1721
 691, 700, 701, 774, 773, 1649, 1650, 1723, 1722
 692, 701, 702, 775, 774, 1650, 1651, 1724, 1723
 693, 702, 703, 776, 775, 1651, 1652, 1725, 1724
 694, 703, 704, 777, 776, 1652, 1653, 1726, 1725
 695, 704, 705, 778, 777, 1653, 1654, 1727, 1726
 696, 705, 706, 779, 778, 1654, 1655, 1728, 1727
 697, 706, 707, 780, 779, 1655, 1656, 1729, 1728
 698, 707, 708, 781, 780, 1656, 1657, 1730, 1729
 699, 708, 709, 782, 781, 1657, 1658, 1731, 1730
 700, 709, 710, 783, 782, 1658, 1659, 1732, 1731
 701, 710, 711, 784, 783, 1659, 1660, 1733, 1732
 702, 711, 712, 785, 784, 1660, 1661, 1734, 1733
 703, 712, 713, 786, 785, 1661, 1662, 1735, 1734
 704, 713, 714, 787, 786, 1662, 1663, 1736, 1735
 705, 714, 715, 788, 787, 1663, 1664, 1737, 1736
 706, 715, 716, 789, 788, 1664, 1665, 1738, 1737
 707, 716, 717, 790, 789, 1665, 1666, 1739, 1738
 708, 717, 718, 791, 790, 1666, 1667, 1740, 1739
 709, 718, 719, 792, 791, 1667, 1668, 1741, 1740
 710, 719, 720, 793, 792, 1668, 1669, 1742, 1741
 711, 720, 721, 794, 793, 1669, 1670, 1743, 1742
 712, 721, 722, 795, 794, 1670, 1671, 1744, 1743
 713, 722, 723, 796, 795, 1671, 1672, 1745, 1744
 714, 723, 724, 797, 796, 1672, 1673, 1746, 1745
 715, 724, 725, 798, 797, 1673, 1674, 1747, 1746
 716, 725, 726, 799, 798, 1674, 1675, 1748, 1747
 717, 726, 727, 800, 799, 1675, 1676, 1749, 1748
 718, 727, 728, 801, 800, 1676, 1677, 1750, 1749
 719, 728, 729, 802, 801, 1677, 1678, 1751, 1750
 720, 729, 730, 803, 802, 1678, 1679, 1752, 1751
 721, 731, 732, 805, 804, 1680, 1681, 1754, 1753
 722, 732, 733, 806, 805, 1681, 1682, 1755, 1754
 723, 733, 734, 807, 806, 1682, 1683, 1756, 1755
 724, 734, 735, 808, 807, 1683, 1684, 1757, 1756
 725, 735, 736, 809, 808, 1684, 1685, 1758, 1757
 726, 736, 737, 810, 809, 1685, 1686, 1759, 1758
 727, 737, 738, 811, 810, 1686, 1687, 1760, 1759
 728, 738, 739, 812, 811, 1687, 1688, 1761, 1760
 729, 739, 740, 813, 812, 1688, 1689, 1762, 1761
 730, 740, 741, 814, 813, 1689, 1690, 1763, 1762
 731, 741, 742, 815, 814, 1690, 1691, 1764, 1763
 732, 742, 743, 816, 815, 1691, 1692, 1765, 1764
 733, 743, 744, 817, 816, 1692, 1693, 1766, 1765
 734, 744, 745, 818, 817, 1693, 1694, 1767, 1766
 735, 745, 746, 819, 818, 1694, 1695, 1768, 1767
 736, 746, 747, 820, 819, 1695, 1696, 1769, 1768
 737, 747, 748, 821, 820, 1696, 1697, 1770, 1769
 738, 748, 749, 822, 821, 1697, 1698, 1771, 1770
 739, 749, 750, 823, 822, 1698, 1699, 1772, 1771
 740, 750, 751, 824, 823, 1699, 1700, 1773, 1772
 741, 751, 752, 825, 824, 1700, 1701, 1774, 1773
 742, 752, 753, 826, 825, 1701, 1702, 1775, 1774
 743, 753, 754, 827, 826, 1702, 1703, 1776, 1775
 744, 754, 755, 828, 827, 1703, 1704, 1777, 1776
 745, 755, 756, 829, 828, 1704, 1705, 1778, 1777
 746, 756, 757, 830, 829, 1705, 1706, 1779, 1778
 747, 757, 758, 831, 830, 1706, 1707, 1780, 1779
 748, 758, 759, 832, 831, 1707, 1708, 1781, 1780
 749, 759, 760, 833, 832, 1708, 1709, 1782, 1781
 750, 760, 761, 834, 833, 1709, 1710, 1783, 1782
 751, 761, 762, 835, 834, 1710, 1711, 1784, 1783
 752, 762, 763, 836, 835, 1711, 1712, 1785, 1784
 753, 763, 764, 837, 836, 1712, 1713, 1786, 1785
 754, 764, 765, 838, 837, 1713, 1714, 1787, 1786
 755, 765, 766, 839, 838, 1714, 1715, 1788, 1787
 756, 766, 767, 840, 839, 1715, 1716, 1789, 1788
 757, 767, 768, 841, 840, 1716, 1717, 1790, 1789
 758, 768, 769, 842, 841, 1717, 1718, 1791, 1790
 759, 769, 770, 843, 842, 1718, 1719, 1792, 1791
 760, 770, 771, 844, 843, 1719, 1720, 1793, 1792
 761, 771, 772, 845, 844, 1720, 1721, 1794, 1793
 762, 772, 773, 846, 845, 1721, 1722, 1795, 1794
 763, 773, 774, 847, 846, 1722, 1723, 1796, 1795
 764, 774, 775, 848, 847, 1723, 1724, 1797, 1796
 765, 775, 776, 849, 848, 1724, 1725, 1798, 1797
 766, 776, 777, 850, 849, 1725, 1726, 1799, 1798
 767, 777, 778, 851, 850, 1726, 1727, 1800, 1799
 768, 778, 779, 852, 851, 1727, 1728, 1801, 1800
 769, 779, 780, 853, 852, 1728, 1729, 1802, 1801
 770, 780, 781, 854, 853, 1729, 1730, 1803, 1802
 771, 781, 782, 855, 854, 1730, 1731, 1804, 1803
 772, 782, 783, 856, 855, 1731, 1732, 1805, 1804
 773, 783, 784, 857, 856, 1732, 1733, 1806, 1805
 774, 784, 785, 858, 857, 1733, 1734, 1807, 1806
 775, 785, 786, 859, 858, 1734, 1735, 1808, 1807
 776, 786, 787, 860, 859, 1735, 1736, 1809, 1808
 777, 787, 788, 861, 860, 1736, 1737, 1810, 1809
 778, 788, 789, 862, 861, 1737, 1738, 1811, 1810
 779, 789, 790, 863, 862, 1738, 1739, 1812, 1811
 780, 790, 791, 864, 863, 1739, 1740, 1813, 1812
 781, 791, 792, 865, 864, 1740, 1741, 1814, 1813
 782, 792, 793, 866, 865, 1741, 1742, 1815, 1814
 783, 793, 794, 867, 866, 1742, 1743, 1816, 1815
 784, 794, 795, 868, 867, 1743, 1744, 1817, 1816
 785, 795, 796, 869, 868, 1744, 1745, 1818, 1817
 786, 796, 797, 870, 869, 1745, 1746, 1819, 1818
 787, 797, 798, 871, 870, 1746, 1747, 1820, 1819
 788, 798, 799, 872, 871, 1747, 1748, 1821, 1820
 789, 799, 800, 873, 872, 1748, 1749, 1822, 1821
 790, 800, 801, 874, 873, 1749, 1750, 1823, 1822
 791, 801, 802, 875, 874, 1750, 1751, 1824, 1823
 792, 802, 803, 876, 875, 1751, 1752, 1825, 1824
 793, 804, 805, 878, 877, 1753, 1754, 1827, 1826
 794, 805, 806, 879, 878, 1754, 1755, 1828, 1827
 795, 806, 807, 880, 879, 1755, 1756, 1829, 1828
 796, 807, 808, 881, 880, 1756, 1757, 1830, 1829
 797, 808, 809, 882, 881, 1757, 1758, 1831, 1830
 798, 809, 810, 883, 882, 1758, 1759, 1832, 1831
 799, 810, 811, 884, 883, 1759, 1760, 1833, 1832
 800, 811, 812, 885, 884, 1760, 1761, 1834, 1833
 801, 812, 813, 886, 885, 1761, 1762, 1835, 1834
 802, 813, 814, 887, 886, 1762, 1763, 1836, 1835
 803, 814, 815, 888, 887, 1763, 1764, 1837, 1836
 804, 815, 816, 889, 888, 1764, 1765, 1838, 1837
 805, 816, 817, 890, 889, 1765, 1766, 1839, 1838
 806, 817, 818, 891, 890, 1766, 1767, 1840, 1839
 807, 818, 819, 892, 891, 1767, 1768, 1841, 1840
 808, 819, 820, 893, 892, 1768, 1769, 1842, 1841
 809, 820, 821, 894, 893, 1769, 1770, 1843, 1842
 810, 821, 822, 895, 894, 1770, 1771, 1844, 1843
 811, 822, 823, 896, 895, 1771, 1772, 1845, 1844
 812, 823, 824, 897, 896, 1772, 1773, 1846, 1845
 813, 824, 825, 898, 897, 1773, 1774, 1847, 1846
 814, 825, 826, 899, 898, 1774, 1775, 1848, 1847
 815, 826, 827, 900, 899, 1775, 1776, 1849, 1848
 816, 827, 828, 901, 900, 1776, 1777, 1850, 1849
 817, 828, 829, 902, 901, 1777, 1778, 1851, 1850
 818, 829, 830, 903, 902, 1778, 1779, 1852, 1851
 819, 830, 831, 904, 903, 1779, 1780, 1853, 1852
 820, 831, 832, 905, 904, 1780, 1781, 1854, 1853
 821, 832, 833, 906, 905, 1781, 1782, 1855, 1854
 822, 833, 834, 907, 906, 1782, 1783, 1856, 1855
 823, 834, 835, 908, 907, 1783, 1784, 1857, 1856
 824, 835, 836, 909, 908, 1784, 1785, 1858, 1857
 825, 836, 837, 910, 909, 1785, 1786, 1859, 1858
 826, 837, 838, 911, 910, 1786, 1787, 1860, 1859
 827, 838, 839, 912, 911, 1787, 1788, 1861, 1860
 828, 839, 840, 913, 912, 1788, 1789, 1862, 1861
 829, 840, 841, 914, 913, 1789, 1790, 1863, 1862
 830, 841, 842, 915, 914, 1790, 1791, 1864, 1863
 831, 842, 843, 916, 915, 1791, 1792, 1865, 1864
 832, 843, 844, 917, 916, 1792, 1793, 1866, 1865
 833, 844, 845, 918, 917, 1793, 1794, 1867, 1866
 834, 845, 846, 919, 918, 1794, 1795, 1868, 1867
 835, 846, 847, 920, 919, 1795, 1796, 1869, 1868
 836, 847, 848, 921, 920, 1796, 1797, 1870, 1869
 837, 848, 849, 922, 921, 1797, 1798, 1871, 1870
 838, 849, 850, 923, 922, 1798, 1799, 1872, 1871
 839, 850, 851, 924, 923, 1799, 1800, 1873, 1872
 840, 851, 852, 925, 924, 1800, 1801, 1874, 1873
 841, 852, 853, 926, 925, 1801, 1802, 1875, 1874
 842, 853, 854, 927, 926, 1802, 1803, 1876, 1875
 843, 854, 855, 928, 927, 1803, 1804, 1877, 1876
 844, 855, 856, 929, 928, 1804, 1805, 1878, 1877
 845, 856, 857, 930, 929, 1805, 1806, 1879, 1878
 846, 857, 858, 931, 930, 1806, 1807, 1880, 1879
 847, 858, 859, 932, 931, 1807, 1808, 1881, 1880
 848, 859, 860, 933, 932, 1808, 1809, 1882, 1881
 849, 860, 861, 934, 933, 1809, 1810, 1883, 1882
 850, 861, 862, 935, 934, 1810, 1811, 1884, 1883
 851, 862, 863, 936, 935, 1811, 1812, 1885, 1884
 852, 863, 864, 937, 936, 1812, 1813, 1886, 1885
 853, 864, 865, 938, 937, 1813, 1814, 1887, 1886
 854, 865, 866, 939, 938, 1814, 1815, 1888, 1887
 855, 866, 867, 940, 939, 1815, 1816, 1889, 1888
 856, 867, 868, 941, 940, 1816, 1817, 1890, 1889
 857, 868, 869, 942, 941, 1817, 1818, 1891, 1890
 858, 869, 870, 943, 942, 1818, 1819, 1892, 1891
 859, 870, 871, 944, 943, 1819, 1820, 1893, 1892
 860, 871, 872, 945, 944, 1820, 1821, 1894, 1893
 861, 872, 873, 946, 945, 1821, 1822, 1895, 1894
 862, 873, 874, 947, 946, 1822, 1823, 1896, 1895
 863, 874, 875, 948, 947, 1823, 1824, 1897, 1896
 864, 875, 876, 949, 948, 1824, 1825, 1898, 1897
*SOLID SECTION, ELSET=BIOFILM, MATERIAL=NSP_BIOFILM
*MATERIAL, NAME=NSP_BIOFILM
*USER MATERIAL, CONSTANTS=5
 5000.0, 0.450, 17.1806, -1.337223, 1.0000
*DEPVAR
 1
*NSET, NSET=BOTTOM
 1,2,3,4,5,6,7,8,9,10,11,12,13,14,15,16
 17,18,19,20,21,22,23,24,25,26,27,28,29,30,31,32
 33,34,35,36,37,38,39,40,41,42,43,44,45,46,47,48
 49,50,51,52,53,54,55,56,57,58,59,60,61,62,63,64
 65,66,67,68,69,70,71,72,73,950,951,952,953,954,955,956
 957,958,959,960,961,962,963,964,965,966,967,968,969,970,971,972
 973,974,975,976,977,978,979,980,981,982,983,984,985,986,987,988
 989,990,991,992,993,994,995,996,997,998,999,1000,1001,1002,1003,1004
 1005,1006,1007,1008,1009,1010,1011,1012,1013,1014,1015,1016,1017,1018,1019,1020
 1021,1022
*NSET, NSET=FRONT
 1,2,3,4,5,6,7,8,9,10,11,12,13,14,15,16
 17,18,19,20,21,22,23,24,25,26,27,28,29,30,31,32
 33,34,35,36,37,38,39,40,41,42,43,44,45,46,47,48
 49,50,51,52,53,54,55,56,57,58,59,60,61,62,63,64
 65,66,67,68,69,70,71,72,73,74,75,76,77,78,79,80
 81,82,83,84,85,86,87,88,89,90,91,92,93,94,95,96
 97,98,99,100,101,102,103,104,105,106,107,108,109,110,111,112
 113,114,115,116,117,118,119,120,121,122,123,124,125,126,127,128
 129,130,131,132,133,134,135,136,137,138,139,140,141,142,143,144
 145,146,147,148,149,150,151,152,153,154,155,156,157,158,159,160
 161,162,163,164,165,166,167,168,169,170,171,172,173,174,175,176
 177,178,179,180,181,182,183,184,185,186,187,188,189,190,191,192
 193,194,195,196,197,198,199,200,201,202,203,204,205,206,207,208
 209,210,211,212,213,214,215,216,217,218,219,220,221,222,223,224
 225,226,227,228,229,230,231,232,233,234,235,236,237,238,239,240
 241,242,243,244,245,246,247,248,249,250,251,252,253,254,255,256
 257,258,259,260,261,262,263,264,265,266,267,268,269,270,271,272
 273,274,275,276,277,278,279,280,281,282,283,284,285,286,287,288
 289,290,291,292,293,294,295,296,297,298,299,300,301,302,303,304
 305,306,307,308,309,310,311,312,313,314,315,316,317,318,319,320
 321,322,323,324,325,326,327,328,329,330,331,332,333,334,335,336
 337,338,339,340,341,342,343,344,345,346,347,348,349,350,351,352
 353,354,355,356,357,358,359,360,361,362,363,364,365,366,367,368
 369,370,371,372,373,374,375,376,377,378,379,380,381,382,383,384
 385,386,387,388,389,390,391,392,393,394,395,396,397,398,399,400
 401,402,403,404,405,406,407,408,409,410,411,412,413,414,415,416
 417,418,419,420,421,422,423,424,425,426,427,428,429,430,431,432
 433,434,435,436,437,438,439,440,441,442,443,444,445,446,447,448
 449,450,451,452,453,454,455,456,457,458,459,460,461,462,463,464
 465,466,467,468,469,470,471,472,473,474,475,476,477,478,479,480
 481,482,483,484,485,486,487,488,489,490,491,492,493,494,495,496
 497,498,499,500,501,502,503,504,505,506,507,508,509,510,511,512
 513,514,515,516,517,518,519,520,521,522,523,524,525,526,527,528
 529,530,531,532,533,534,535,536,537,538,539,540,541,542,543,544
 545,546,547,548,549,550,551,552,553,554,555,556,557,558,559,560
 561,562,563,564,565,566,567,568,569,570,571,572,573,574,575,576
 577,578,579,580,581,582,583,584,585,586,587,588,589,590,591,592
 593,594,595,596,597,598,599,600,601,602,603,604,605,606,607,608
 609,610,611,612,613,614,615,616,617,618,619,620,621,622,623,624
 625,626,627,628,629,630,631,632,633,634,635,636,637,638,639,640
 641,642,643,644,645,646,647,648,649,650,651,652,653,654,655,656
 657,658,659,660,661,662,663,664,665,666,667,668,669,670,671,672
 673,674,675,676,677,678,679,680,681,682,683,684,685,686,687,688
 689,690,691,692,693,694,695,696,697,698,699,700,701,702,703,704
 705,706,707,708,709,710,711,712,713,714,715,716,717,718,719,720
 721,722,723,724,725,726,727,728,729,730,731,732,733,734,735,736
 737,738,739,740,741,742,743,744,745,746,747,748,749,750,751,752
 753,754,755,756,757,758,759,760,761,762,763,764,765,766,767,768
 769,770,771,772,773,774,775,776,777,778,779,780,781,782,783,784
 785,786,787,788,789,790,791,792,793,794,795,796,797,798,799,800
 801,802,803,804,805,806,807,808,809,810,811,812,813,814,815,816
 817,818,819,820,821,822,823,824,825,826,827,828,829,830,831,832
 833,834,835,836,837,838,839,840,841,842,843,844,845,846,847,848
 849,850,851,852,853,854,855,856,857,858,859,860,861,862,863,864
 865,866,867,868,869,870,871,872,873,874,875,876,877,878,879,880
 881,882,883,884,885,886,887,888,889,890,891,892,893,894,895,896
 897,898,899,900,901,902,903,904,905,906,907,908,909,910,911,912
 913,914,915,916,917,918,919,920,921,922,923,924,925,926,927,928
 929,930,931,932,933,934,935,936,937,938,939,940,941,942,943,944
 945,946,947,948,949
*NSET, NSET=BACK
 950,951,952,953,954,955,956,957,958,959,960,961,962,963,964,965
 966,967,968,969,970,971,972,973,974,975,976,977,978,979,980,981
 982,983,984,985,986,987,988,989,990,991,992,993,994,995,996,997
 998,999,1000,1001,1002,1003,1004,1005,1006,1007,1008,1009,1010,1011,1012,1013
 1014,1015,1016,1017,1018,1019,1020,1021,1022,1023,1024,1025,1026,1027,1028,1029
 1030,1031,1032,1033,1034,1035,1036,1037,1038,1039,1040,1041,1042,1043,1044,1045
 1046,1047,1048,1049,1050,1051,1052,1053,1054,1055,1056,1057,1058,1059,1060,1061
 1062,1063,1064,1065,1066,1067,1068,1069,1070,1071,1072,1073,1074,1075,1076,1077
 1078,1079,1080,1081,1082,1083,1084,1085,1086,1087,1088,1089,1090,1091,1092,1093
 1094,1095,1096,1097,1098,1099,1100,1101,1102,1103,1104,1105,1106,1107,1108,1109
 1110,1111,1112,1113,1114,1115,1116,1117,1118,1119,1120,1121,1122,1123,1124,1125
 1126,1127,1128,1129,1130,1131,1132,1133,1134,1135,1136,1137,1138,1139,1140,1141
 1142,1143,1144,1145,1146,1147,1148,1149,1150,1151,1152,1153,1154,1155,1156,1157
 1158,1159,1160,1161,1162,1163,1164,1165,1166,1167,1168,1169,1170,1171,1172,1173
 1174,1175,1176,1177,1178,1179,1180,1181,1182,1183,1184,1185,1186,1187,1188,1189
 1190,1191,1192,1193,1194,1195,1196,1197,1198,1199,1200,1201,1202,1203,1204,1205
 1206,1207,1208,1209,1210,1211,1212,1213,1214,1215,1216,1217,1218,1219,1220,1221
 1222,1223,1224,1225,1226,1227,1228,1229,1230,1231,1232,1233,1234,1235,1236,1237
 1238,1239,1240,1241,1242,1243,1244,1245,1246,1247,1248,1249,1250,1251,1252,1253
 1254,1255,1256,1257,1258,1259,1260,1261,1262,1263,1264,1265,1266,1267,1268,1269
 1270,1271,1272,1273,1274,1275,1276,1277,1278,1279,1280,1281,1282,1283,1284,1285
 1286,1287,1288,1289,1290,1291,1292,1293,1294,1295,1296,1297,1298,1299,1300,1301
 1302,1303,1304,1305,1306,1307,1308,1309,1310,1311,1312,1313,1314,1315,1316,1317
 1318,1319,1320,1321,1322,1323,1324,1325,1326,1327,1328,1329,1330,1331,1332,1333
 1334,1335,1336,1337,1338,1339,1340,1341,1342,1343,1344,1345,1346,1347,1348,1349
 1350,1351,1352,1353,1354,1355,1356,1357,1358,1359,1360,1361,1362,1363,1364,1365
 1366,1367,1368,1369,1370,1371,1372,1373,1374,1375,1376,1377,1378,1379,1380,1381
 1382,1383,1384,1385,1386,1387,1388,1389,1390,1391,1392,1393,1394,1395,1396,1397
 1398,1399,1400,1401,1402,1403,1404,1405,1406,1407,1408,1409,1410,1411,1412,1413
 1414,1415,1416,1417,1418,1419,1420,1421,1422,1423,1424,1425,1426,1427,1428,1429
 1430,1431,1432,1433,1434,1435,1436,1437,1438,1439,1440,1441,1442,1443,1444,1445
 1446,1447,1448,1449,1450,1451,1452,1453,1454,1455,1456,1457,1458,1459,1460,1461
 1462,1463,1464,1465,1466,1467,1468,1469,1470,1471,1472,1473,1474,1475,1476,1477
 1478,1479,1480,1481,1482,1483,1484,1485,1486,1487,1488,1489,1490,1491,1492,1493
 1494,1495,1496,1497,1498,1499,1500,1501,1502,1503,1504,1505,1506,1507,1508,1509
 1510,1511,1512,1513,1514,1515,1516,1517,1518,1519,1520,1521,1522,1523,1524,1525
 1526,1527,1528,1529,1530,1531,1532,1533,1534,1535,1536,1537,1538,1539,1540,1541
 1542,1543,1544,1545,1546,1547,1548,1549,1550,1551,1552,1553,1554,1555,1556,1557
 1558,1559,1560,1561,1562,1563,1564,1565,1566,1567,1568,1569,1570,1571,1572,1573
 1574,1575,1576,1577,1578,1579,1580,1581,1582,1583,1584,1585,1586,1587,1588,1589
 1590,1591,1592,1593,1594,1595,1596,1597,1598,1599,1600,1601,1602,1603,1604,1605
 1606,1607,1608,1609,1610,1611,1612,1613,1614,1615,1616,1617,1618,1619,1620,1621
 1622,1623,1624,1625,1626,1627,1628,1629,1630,1631,1632,1633,1634,1635,1636,1637
 1638,1639,1640,1641,1642,1643,1644,1645,1646,1647,1648,1649,1650,1651,1652,1653
 1654,1655,1656,1657,1658,1659,1660,1661,1662,1663,1664,1665,1666,1667,1668,1669
 1670,1671,1672,1673,1674,1675,1676,1677,1678,1679,1680,1681,1682,1683,1684,1685
 1686,1687,1688,1689,1690,1691,1692,1693,1694,1695,1696,1697,1698,1699,1700,1701
 1702,1703,1704,1705,1706,1707,1708,1709,1710,1711,1712,1713,1714,1715,1716,1717
 1718,1719,1720,1721,1722,1723,1724,1725,1726,1727,1728,1729,1730,1731,1732,1733
 1734,1735,1736,1737,1738,1739,1740,1741,1742,1743,1744,1745,1746,1747,1748,1749
 1750,1751,1752,1753,1754,1755,1756,1757,1758,1759,1760,1761,1762,1763,1764,1765
 1766,1767,1768,1769,1770,1771,1772,1773,1774,1775,1776,1777,1778,1779,1780,1781
 1782,1783,1784,1785,1786,1787,1788,1789,1790,1791,1792,1793,1794,1795,1796,1797
 1798,1799,1800,1801,1802,1803,1804,1805,1806,1807,1808,1809,1810,1811,1812,1813
 1814,1815,1816,1817,1818,1819,1820,1821,1822,1823,1824,1825,1826,1827,1828,1829
 1830,1831,1832,1833,1834,1835,1836,1837,1838,1839,1840,1841,1842,1843,1844,1845
 1846,1847,1848,1849,1850,1851,1852,1853,1854,1855,1856,1857,1858,1859,1860,1861
 1862,1863,1864,1865,1866,1867,1868,1869,1870,1871,1872,1873,1874,1875,1876,1877
 1878,1879,1880,1881,1882,1883,1884,1885,1886,1887,1888,1889,1890,1891,1892,1893
 1894,1895,1896,1897,1898
*BOUNDARY
 BOTTOM, 1, 3
 FRONT,  3, 3
 BACK,   3, 3
*STEP, NLGEOM=YES, INC=200
 NSP socket UMAT: depth-graded growth on implant-thread geometry
*STATIC
 0.05, 1.0, 1e-5, 0.05
*OUTPUT, FIELD
*NODE OUTPUT
 U, COORD
*ELEMENT OUTPUT, POSITION=CENTROID
 S, SDV, COORD
*END STEP
