*HEADING
 Finite-strain (F=Fe.Fg) implant-thread biofilm, cond=DH, umat_growth_phi, NLGEOM
*NODE
 1, 0.000000, 0.000000
 2, 0.027778, 0.000000
 3, 0.055556, 0.000000
 4, 0.083333, 0.000000
 5, 0.111111, 0.000000
 6, 0.138889, 0.000000
 7, 0.166667, 0.000000
 8, 0.194444, 0.000000
 9, 0.222222, 0.000000
 10, 0.250000, 0.000000
 11, 0.277778, 0.000000
 12, 0.305556, 0.000000
 13, 0.333333, 0.000000
 14, 0.361111, 0.000000
 15, 0.388889, 0.000000
 16, 0.416667, 0.000000
 17, 0.444444, 0.000000
 18, 0.472222, 0.000000
 19, 0.500000, 0.000000
 20, 0.527778, 0.000000
 21, 0.555556, 0.000000
 22, 0.583333, 0.000000
 23, 0.611111, 0.000000
 24, 0.638889, 0.000000
 25, 0.666667, 0.000000
 26, 0.694444, 0.000000
 27, 0.722222, 0.000000
 28, 0.750000, 0.000000
 29, 0.777778, 0.000000
 30, 0.805556, 0.000000
 31, 0.833333, 0.000000
 32, 0.861111, 0.000000
 33, 0.888889, 0.000000
 34, 0.916667, 0.000000
 35, 0.944444, 0.000000
 36, 0.972222, 0.000000
 37, 1.000000, 0.000000
 38, 1.027778, 0.000000
 39, 1.055556, 0.000000
 40, 1.083333, 0.000000
 41, 1.111111, 0.000000
 42, 1.138889, 0.000000
 43, 1.166667, 0.000000
 44, 1.194444, 0.000000
 45, 1.222222, 0.000000
 46, 1.250000, 0.000000
 47, 1.277778, 0.000000
 48, 1.305556, 0.000000
 49, 1.333333, 0.000000
 50, 1.361111, 0.000000
 51, 1.388889, 0.000000
 52, 1.416667, 0.000000
 53, 1.444444, 0.000000
 54, 1.472222, 0.000000
 55, 1.500000, 0.000000
 56, 1.527778, 0.000000
 57, 1.555556, 0.000000
 58, 1.583333, 0.000000
 59, 1.611111, 0.000000
 60, 1.638889, 0.000000
 61, 1.666667, 0.000000
 62, 1.694444, 0.000000
 63, 1.722222, 0.000000
 64, 1.750000, 0.000000
 65, 1.777778, 0.000000
 66, 1.805556, 0.000000
 67, 1.833333, 0.000000
 68, 1.861111, 0.000000
 69, 1.888889, 0.000000
 70, 1.916667, 0.000000
 71, 1.944444, 0.000000
 72, 1.972222, 0.000000
 73, 2.000000, 0.000000
 74, 2.027778, 0.000000
 75, 2.055556, 0.000000
 76, 2.083333, 0.000000
 77, 2.111111, 0.000000
 78, 2.138889, 0.000000
 79, 2.166667, 0.000000
 80, 2.194444, 0.000000
 81, 2.222222, 0.000000
 82, 2.250000, 0.000000
 83, 2.277778, 0.000000
 84, 2.305556, 0.000000
 85, 2.333333, 0.000000
 86, 2.361111, 0.000000
 87, 2.388889, 0.000000
 88, 2.416667, 0.000000
 89, 2.444444, 0.000000
 90, 2.472222, 0.000000
 91, 2.500000, 0.000000
 92, 2.527778, 0.000000
 93, 2.555556, 0.000000
 94, 2.583333, 0.000000
 95, 2.611111, 0.000000
 96, 2.638889, 0.000000
 97, 2.666667, 0.000000
 98, 2.694444, 0.000000
 99, 2.722222, 0.000000
 100, 2.750000, 0.000000
 101, 2.777778, 0.000000
 102, 2.805556, 0.000000
 103, 2.833333, 0.000000
 104, 2.861111, 0.000000
 105, 2.888889, 0.000000
 106, 2.916667, 0.000000
 107, 2.944444, 0.000000
 108, 2.972222, 0.000000
 109, 3.000000, 0.000000
 110, 0.000000, 0.055556
 111, 0.027778, 0.055556
 112, 0.055556, 0.055556
 113, 0.083333, 0.055556
 114, 0.111111, 0.055556
 115, 0.138889, 0.055556
 116, 0.166667, 0.055556
 117, 0.194444, 0.055556
 118, 0.222222, 0.055556
 119, 0.250000, 0.055556
 120, 0.277778, 0.055556
 121, 0.305556, 0.055556
 122, 0.333333, 0.055556
 123, 0.361111, 0.055556
 124, 0.388889, 0.055556
 125, 0.416667, 0.055556
 126, 0.444444, 0.055556
 127, 0.472222, 0.055556
 128, 0.500000, 0.055556
 129, 0.527778, 0.055556
 130, 0.555556, 0.055556
 131, 0.583333, 0.055556
 132, 0.611111, 0.055556
 133, 0.638889, 0.055556
 134, 0.666667, 0.055556
 135, 0.694444, 0.055556
 136, 0.722222, 0.055556
 137, 0.750000, 0.055556
 138, 0.777778, 0.055556
 139, 0.805556, 0.055556
 140, 0.833333, 0.055556
 141, 0.861111, 0.055556
 142, 0.888889, 0.055556
 143, 0.916667, 0.055556
 144, 0.944444, 0.055556
 145, 0.972222, 0.055556
 146, 1.000000, 0.055556
 147, 1.027778, 0.055556
 148, 1.055556, 0.055556
 149, 1.083333, 0.055556
 150, 1.111111, 0.055556
 151, 1.138889, 0.055556
 152, 1.166667, 0.055556
 153, 1.194444, 0.055556
 154, 1.222222, 0.055556
 155, 1.250000, 0.055556
 156, 1.277778, 0.055556
 157, 1.305556, 0.055556
 158, 1.333333, 0.055556
 159, 1.361111, 0.055556
 160, 1.388889, 0.055556
 161, 1.416667, 0.055556
 162, 1.444444, 0.055556
 163, 1.472222, 0.055556
 164, 1.500000, 0.055556
 165, 1.527778, 0.055556
 166, 1.555556, 0.055556
 167, 1.583333, 0.055556
 168, 1.611111, 0.055556
 169, 1.638889, 0.055556
 170, 1.666667, 0.055556
 171, 1.694444, 0.055556
 172, 1.722222, 0.055556
 173, 1.750000, 0.055556
 174, 1.777778, 0.055556
 175, 1.805556, 0.055556
 176, 1.833333, 0.055556
 177, 1.861111, 0.055556
 178, 1.888889, 0.055556
 179, 1.916667, 0.055556
 180, 1.944444, 0.055556
 181, 1.972222, 0.055556
 182, 2.000000, 0.055556
 183, 2.027778, 0.055556
 184, 2.055556, 0.055556
 185, 2.083333, 0.055556
 186, 2.111111, 0.055556
 187, 2.138889, 0.055556
 188, 2.166667, 0.055556
 189, 2.194444, 0.055556
 190, 2.222222, 0.055556
 191, 2.250000, 0.055556
 192, 2.277778, 0.055556
 193, 2.305556, 0.055556
 194, 2.333333, 0.055556
 195, 2.361111, 0.055556
 196, 2.388889, 0.055556
 197, 2.416667, 0.055556
 198, 2.444444, 0.055556
 199, 2.472222, 0.055556
 200, 2.500000, 0.055556
 201, 2.527778, 0.055556
 202, 2.555556, 0.055556
 203, 2.583333, 0.055556
 204, 2.611111, 0.055556
 205, 2.638889, 0.055556
 206, 2.666667, 0.055556
 207, 2.694444, 0.055556
 208, 2.722222, 0.055556
 209, 2.750000, 0.055556
 210, 2.777778, 0.055556
 211, 2.805556, 0.055556
 212, 2.833333, 0.055556
 213, 2.861111, 0.055556
 214, 2.888889, 0.055556
 215, 2.916667, 0.055556
 216, 2.944444, 0.055556
 217, 2.972222, 0.055556
 218, 3.000000, 0.055556
 219, 0.000000, 0.111111
 220, 0.027778, 0.111111
 221, 0.055556, 0.111111
 222, 0.083333, 0.111111
 223, 0.111111, 0.111111
 224, 0.138889, 0.111111
 225, 0.166667, 0.111111
 226, 0.194444, 0.111111
 227, 0.222222, 0.111111
 228, 0.250000, 0.111111
 229, 0.277778, 0.111111
 230, 0.305556, 0.111111
 231, 0.333333, 0.111111
 232, 0.361111, 0.111111
 233, 0.388889, 0.111111
 234, 0.416667, 0.111111
 235, 0.444444, 0.111111
 236, 0.472222, 0.111111
 237, 0.500000, 0.111111
 238, 0.527778, 0.111111
 239, 0.555556, 0.111111
 240, 0.583333, 0.111111
 241, 0.611111, 0.111111
 242, 0.638889, 0.111111
 243, 0.666667, 0.111111
 244, 0.694444, 0.111111
 245, 0.722222, 0.111111
 246, 0.750000, 0.111111
 247, 0.777778, 0.111111
 248, 0.805556, 0.111111
 249, 0.833333, 0.111111
 250, 0.861111, 0.111111
 251, 0.888889, 0.111111
 252, 0.916667, 0.111111
 253, 0.944444, 0.111111
 254, 0.972222, 0.111111
 255, 1.000000, 0.111111
 256, 1.027778, 0.111111
 257, 1.055556, 0.111111
 258, 1.083333, 0.111111
 259, 1.111111, 0.111111
 260, 1.138889, 0.111111
 261, 1.166667, 0.111111
 262, 1.194444, 0.111111
 263, 1.222222, 0.111111
 264, 1.250000, 0.111111
 265, 1.277778, 0.111111
 266, 1.305556, 0.111111
 267, 1.333333, 0.111111
 268, 1.361111, 0.111111
 269, 1.388889, 0.111111
 270, 1.416667, 0.111111
 271, 1.444444, 0.111111
 272, 1.472222, 0.111111
 273, 1.500000, 0.111111
 274, 1.527778, 0.111111
 275, 1.555556, 0.111111
 276, 1.583333, 0.111111
 277, 1.611111, 0.111111
 278, 1.638889, 0.111111
 279, 1.666667, 0.111111
 280, 1.694444, 0.111111
 281, 1.722222, 0.111111
 282, 1.750000, 0.111111
 283, 1.777778, 0.111111
 284, 1.805556, 0.111111
 285, 1.833333, 0.111111
 286, 1.861111, 0.111111
 287, 1.888889, 0.111111
 288, 1.916667, 0.111111
 289, 1.944444, 0.111111
 290, 1.972222, 0.111111
 291, 2.000000, 0.111111
 292, 2.027778, 0.111111
 293, 2.055556, 0.111111
 294, 2.083333, 0.111111
 295, 2.111111, 0.111111
 296, 2.138889, 0.111111
 297, 2.166667, 0.111111
 298, 2.194444, 0.111111
 299, 2.222222, 0.111111
 300, 2.250000, 0.111111
 301, 2.277778, 0.111111
 302, 2.305556, 0.111111
 303, 2.333333, 0.111111
 304, 2.361111, 0.111111
 305, 2.388889, 0.111111
 306, 2.416667, 0.111111
 307, 2.444444, 0.111111
 308, 2.472222, 0.111111
 309, 2.500000, 0.111111
 310, 2.527778, 0.111111
 311, 2.555556, 0.111111
 312, 2.583333, 0.111111
 313, 2.611111, 0.111111
 314, 2.638889, 0.111111
 315, 2.666667, 0.111111
 316, 2.694444, 0.111111
 317, 2.722222, 0.111111
 318, 2.750000, 0.111111
 319, 2.777778, 0.111111
 320, 2.805556, 0.111111
 321, 2.833333, 0.111111
 322, 2.861111, 0.111111
 323, 2.888889, 0.111111
 324, 2.916667, 0.111111
 325, 2.944444, 0.111111
 326, 2.972222, 0.111111
 327, 3.000000, 0.111111
 328, 0.000000, 0.166667
 329, 0.027778, 0.166667
 330, 0.055556, 0.166667
 331, 0.083333, 0.166667
 332, 0.111111, 0.166667
 333, 0.138889, 0.166667
 334, 0.166667, 0.166667
 335, 0.194444, 0.166667
 336, 0.222222, 0.166667
 337, 0.250000, 0.166667
 338, 0.277778, 0.166667
 339, 0.305556, 0.166667
 340, 0.333333, 0.166667
 341, 0.361111, 0.166667
 342, 0.388889, 0.166667
 343, 0.416667, 0.166667
 344, 0.444444, 0.166667
 345, 0.472222, 0.166667
 346, 0.500000, 0.166667
 347, 0.527778, 0.166667
 348, 0.555556, 0.166667
 349, 0.583333, 0.166667
 350, 0.611111, 0.166667
 351, 0.638889, 0.166667
 352, 0.666667, 0.166667
 353, 0.694444, 0.166667
 354, 0.722222, 0.166667
 355, 0.750000, 0.166667
 356, 0.777778, 0.166667
 357, 0.805556, 0.166667
 358, 0.833333, 0.166667
 359, 0.861111, 0.166667
 360, 0.888889, 0.166667
 361, 0.916667, 0.166667
 362, 0.944444, 0.166667
 363, 0.972222, 0.166667
 364, 1.000000, 0.166667
 365, 1.027778, 0.166667
 366, 1.055556, 0.166667
 367, 1.083333, 0.166667
 368, 1.111111, 0.166667
 369, 1.138889, 0.166667
 370, 1.166667, 0.166667
 371, 1.194444, 0.166667
 372, 1.222222, 0.166667
 373, 1.250000, 0.166667
 374, 1.277778, 0.166667
 375, 1.305556, 0.166667
 376, 1.333333, 0.166667
 377, 1.361111, 0.166667
 378, 1.388889, 0.166667
 379, 1.416667, 0.166667
 380, 1.444444, 0.166667
 381, 1.472222, 0.166667
 382, 1.500000, 0.166667
 383, 1.527778, 0.166667
 384, 1.555556, 0.166667
 385, 1.583333, 0.166667
 386, 1.611111, 0.166667
 387, 1.638889, 0.166667
 388, 1.666667, 0.166667
 389, 1.694444, 0.166667
 390, 1.722222, 0.166667
 391, 1.750000, 0.166667
 392, 1.777778, 0.166667
 393, 1.805556, 0.166667
 394, 1.833333, 0.166667
 395, 1.861111, 0.166667
 396, 1.888889, 0.166667
 397, 1.916667, 0.166667
 398, 1.944444, 0.166667
 399, 1.972222, 0.166667
 400, 2.000000, 0.166667
 401, 2.027778, 0.166667
 402, 2.055556, 0.166667
 403, 2.083333, 0.166667
 404, 2.111111, 0.166667
 405, 2.138889, 0.166667
 406, 2.166667, 0.166667
 407, 2.194444, 0.166667
 408, 2.222222, 0.166667
 409, 2.250000, 0.166667
 410, 2.277778, 0.166667
 411, 2.305556, 0.166667
 412, 2.333333, 0.166667
 413, 2.361111, 0.166667
 414, 2.388889, 0.166667
 415, 2.416667, 0.166667
 416, 2.444444, 0.166667
 417, 2.472222, 0.166667
 418, 2.500000, 0.166667
 419, 2.527778, 0.166667
 420, 2.555556, 0.166667
 421, 2.583333, 0.166667
 422, 2.611111, 0.166667
 423, 2.638889, 0.166667
 424, 2.666667, 0.166667
 425, 2.694444, 0.166667
 426, 2.722222, 0.166667
 427, 2.750000, 0.166667
 428, 2.777778, 0.166667
 429, 2.805556, 0.166667
 430, 2.833333, 0.166667
 431, 2.861111, 0.166667
 432, 2.888889, 0.166667
 433, 2.916667, 0.166667
 434, 2.944444, 0.166667
 435, 2.972222, 0.166667
 436, 3.000000, 0.166667
 437, 0.000000, 0.222222
 438, 0.027778, 0.222222
 439, 0.055556, 0.222222
 440, 0.083333, 0.222222
 441, 0.111111, 0.222222
 442, 0.138889, 0.222222
 443, 0.166667, 0.222222
 444, 0.194444, 0.222222
 445, 0.222222, 0.222222
 446, 0.250000, 0.222222
 447, 0.277778, 0.222222
 448, 0.305556, 0.222222
 449, 0.333333, 0.222222
 450, 0.361111, 0.222222
 451, 0.388889, 0.222222
 452, 0.416667, 0.222222
 453, 0.444444, 0.222222
 454, 0.472222, 0.222222
 455, 0.500000, 0.222222
 456, 0.527778, 0.222222
 457, 0.555556, 0.222222
 458, 0.583333, 0.222222
 459, 0.611111, 0.222222
 460, 0.638889, 0.222222
 461, 0.666667, 0.222222
 462, 0.694444, 0.222222
 463, 0.722222, 0.222222
 464, 0.750000, 0.222222
 465, 0.777778, 0.222222
 466, 0.805556, 0.222222
 467, 0.833333, 0.222222
 468, 0.861111, 0.222222
 469, 0.888889, 0.222222
 470, 0.916667, 0.222222
 471, 0.944444, 0.222222
 472, 0.972222, 0.222222
 473, 1.000000, 0.222222
 474, 1.027778, 0.222222
 475, 1.055556, 0.222222
 476, 1.083333, 0.222222
 477, 1.111111, 0.222222
 478, 1.138889, 0.222222
 479, 1.166667, 0.222222
 480, 1.194444, 0.222222
 481, 1.222222, 0.222222
 482, 1.250000, 0.222222
 483, 1.277778, 0.222222
 484, 1.305556, 0.222222
 485, 1.333333, 0.222222
 486, 1.361111, 0.222222
 487, 1.388889, 0.222222
 488, 1.416667, 0.222222
 489, 1.444444, 0.222222
 490, 1.472222, 0.222222
 491, 1.500000, 0.222222
 492, 1.527778, 0.222222
 493, 1.555556, 0.222222
 494, 1.583333, 0.222222
 495, 1.611111, 0.222222
 496, 1.638889, 0.222222
 497, 1.666667, 0.222222
 498, 1.694444, 0.222222
 499, 1.722222, 0.222222
 500, 1.750000, 0.222222
 501, 1.777778, 0.222222
 502, 1.805556, 0.222222
 503, 1.833333, 0.222222
 504, 1.861111, 0.222222
 505, 1.888889, 0.222222
 506, 1.916667, 0.222222
 507, 1.944444, 0.222222
 508, 1.972222, 0.222222
 509, 2.000000, 0.222222
 510, 2.027778, 0.222222
 511, 2.055556, 0.222222
 512, 2.083333, 0.222222
 513, 2.111111, 0.222222
 514, 2.138889, 0.222222
 515, 2.166667, 0.222222
 516, 2.194444, 0.222222
 517, 2.222222, 0.222222
 518, 2.250000, 0.222222
 519, 2.277778, 0.222222
 520, 2.305556, 0.222222
 521, 2.333333, 0.222222
 522, 2.361111, 0.222222
 523, 2.388889, 0.222222
 524, 2.416667, 0.222222
 525, 2.444444, 0.222222
 526, 2.472222, 0.222222
 527, 2.500000, 0.222222
 528, 2.527778, 0.222222
 529, 2.555556, 0.222222
 530, 2.583333, 0.222222
 531, 2.611111, 0.222222
 532, 2.638889, 0.222222
 533, 2.666667, 0.222222
 534, 2.694444, 0.222222
 535, 2.722222, 0.222222
 536, 2.750000, 0.222222
 537, 2.777778, 0.222222
 538, 2.805556, 0.222222
 539, 2.833333, 0.222222
 540, 2.861111, 0.222222
 541, 2.888889, 0.222222
 542, 2.916667, 0.222222
 543, 2.944444, 0.222222
 544, 2.972222, 0.222222
 545, 3.000000, 0.222222
 546, 0.000000, 0.277778
 547, 0.027778, 0.277778
 548, 0.055556, 0.277778
 549, 0.083333, 0.277778
 550, 0.111111, 0.277778
 551, 0.138889, 0.277778
 552, 0.166667, 0.277778
 553, 0.194444, 0.277778
 554, 0.222222, 0.277778
 555, 0.250000, 0.277778
 556, 0.277778, 0.277778
 557, 0.305556, 0.277778
 558, 0.333333, 0.277778
 559, 0.361111, 0.277778
 560, 0.388889, 0.277778
 561, 0.416667, 0.277778
 562, 0.444444, 0.277778
 563, 0.472222, 0.277778
 564, 0.500000, 0.277778
 565, 0.527778, 0.277778
 566, 0.555556, 0.277778
 567, 0.583333, 0.277778
 568, 0.611111, 0.277778
 569, 0.638889, 0.277778
 570, 0.666667, 0.277778
 571, 0.694444, 0.277778
 572, 0.722222, 0.277778
 573, 0.750000, 0.277778
 574, 0.777778, 0.277778
 575, 0.805556, 0.277778
 576, 0.833333, 0.277778
 577, 0.861111, 0.277778
 578, 0.888889, 0.277778
 579, 0.916667, 0.277778
 580, 0.944444, 0.277778
 581, 0.972222, 0.277778
 582, 1.000000, 0.277778
 583, 1.027778, 0.277778
 584, 1.055556, 0.277778
 585, 1.083333, 0.277778
 586, 1.111111, 0.277778
 587, 1.138889, 0.277778
 588, 1.166667, 0.277778
 589, 1.194444, 0.277778
 590, 1.222222, 0.277778
 591, 1.250000, 0.277778
 592, 1.277778, 0.277778
 593, 1.305556, 0.277778
 594, 1.333333, 0.277778
 595, 1.361111, 0.277778
 596, 1.388889, 0.277778
 597, 1.416667, 0.277778
 598, 1.444444, 0.277778
 599, 1.472222, 0.277778
 600, 1.500000, 0.277778
 601, 1.527778, 0.277778
 602, 1.555556, 0.277778
 603, 1.583333, 0.277778
 604, 1.611111, 0.277778
 605, 1.638889, 0.277778
 606, 1.666667, 0.277778
 607, 1.694444, 0.277778
 608, 1.722222, 0.277778
 609, 1.750000, 0.277778
 610, 1.777778, 0.277778
 611, 1.805556, 0.277778
 612, 1.833333, 0.277778
 613, 1.861111, 0.277778
 614, 1.888889, 0.277778
 615, 1.916667, 0.277778
 616, 1.944444, 0.277778
 617, 1.972222, 0.277778
 618, 2.000000, 0.277778
 619, 2.027778, 0.277778
 620, 2.055556, 0.277778
 621, 2.083333, 0.277778
 622, 2.111111, 0.277778
 623, 2.138889, 0.277778
 624, 2.166667, 0.277778
 625, 2.194444, 0.277778
 626, 2.222222, 0.277778
 627, 2.250000, 0.277778
 628, 2.277778, 0.277778
 629, 2.305556, 0.277778
 630, 2.333333, 0.277778
 631, 2.361111, 0.277778
 632, 2.388889, 0.277778
 633, 2.416667, 0.277778
 634, 2.444444, 0.277778
 635, 2.472222, 0.277778
 636, 2.500000, 0.277778
 637, 2.527778, 0.277778
 638, 2.555556, 0.277778
 639, 2.583333, 0.277778
 640, 2.611111, 0.277778
 641, 2.638889, 0.277778
 642, 2.666667, 0.277778
 643, 2.694444, 0.277778
 644, 2.722222, 0.277778
 645, 2.750000, 0.277778
 646, 2.777778, 0.277778
 647, 2.805556, 0.277778
 648, 2.833333, 0.277778
 649, 2.861111, 0.277778
 650, 2.888889, 0.277778
 651, 2.916667, 0.277778
 652, 2.944444, 0.277778
 653, 2.972222, 0.277778
 654, 3.000000, 0.277778
 655, 0.000000, 0.333333
 656, 0.027778, 0.333333
 657, 0.055556, 0.333333
 658, 0.083333, 0.333333
 659, 0.111111, 0.333333
 660, 0.138889, 0.333333
 661, 0.166667, 0.333333
 662, 0.194444, 0.333333
 663, 0.222222, 0.333333
 664, 0.250000, 0.333333
 665, 0.277778, 0.333333
 666, 0.305556, 0.333333
 667, 0.333333, 0.333333
 668, 0.361111, 0.333333
 669, 0.388889, 0.333333
 670, 0.416667, 0.333333
 671, 0.444444, 0.333333
 672, 0.472222, 0.333333
 673, 0.500000, 0.333333
 674, 0.527778, 0.333333
 675, 0.555556, 0.333333
 676, 0.583333, 0.333333
 677, 0.611111, 0.333333
 678, 0.638889, 0.333333
 679, 0.666667, 0.333333
 680, 0.694444, 0.333333
 681, 0.722222, 0.333333
 682, 0.750000, 0.333333
 683, 0.777778, 0.333333
 684, 0.805556, 0.333333
 685, 0.833333, 0.333333
 686, 0.861111, 0.333333
 687, 0.888889, 0.333333
 688, 0.916667, 0.333333
 689, 0.944444, 0.333333
 690, 0.972222, 0.333333
 691, 1.000000, 0.333333
 692, 1.027778, 0.333333
 693, 1.055556, 0.333333
 694, 1.083333, 0.333333
 695, 1.111111, 0.333333
 696, 1.138889, 0.333333
 697, 1.166667, 0.333333
 698, 1.194444, 0.333333
 699, 1.222222, 0.333333
 700, 1.250000, 0.333333
 701, 1.277778, 0.333333
 702, 1.305556, 0.333333
 703, 1.333333, 0.333333
 704, 1.361111, 0.333333
 705, 1.388889, 0.333333
 706, 1.416667, 0.333333
 707, 1.444444, 0.333333
 708, 1.472222, 0.333333
 709, 1.500000, 0.333333
 710, 1.527778, 0.333333
 711, 1.555556, 0.333333
 712, 1.583333, 0.333333
 713, 1.611111, 0.333333
 714, 1.638889, 0.333333
 715, 1.666667, 0.333333
 716, 1.694444, 0.333333
 717, 1.722222, 0.333333
 718, 1.750000, 0.333333
 719, 1.777778, 0.333333
 720, 1.805556, 0.333333
 721, 1.833333, 0.333333
 722, 1.861111, 0.333333
 723, 1.888889, 0.333333
 724, 1.916667, 0.333333
 725, 1.944444, 0.333333
 726, 1.972222, 0.333333
 727, 2.000000, 0.333333
 728, 2.027778, 0.333333
 729, 2.055556, 0.333333
 730, 2.083333, 0.333333
 731, 2.111111, 0.333333
 732, 2.138889, 0.333333
 733, 2.166667, 0.333333
 734, 2.194444, 0.333333
 735, 2.222222, 0.333333
 736, 2.250000, 0.333333
 737, 2.277778, 0.333333
 738, 2.305556, 0.333333
 739, 2.333333, 0.333333
 740, 2.361111, 0.333333
 741, 2.388889, 0.333333
 742, 2.416667, 0.333333
 743, 2.444444, 0.333333
 744, 2.472222, 0.333333
 745, 2.500000, 0.333333
 746, 2.527778, 0.333333
 747, 2.555556, 0.333333
 748, 2.583333, 0.333333
 749, 2.611111, 0.333333
 750, 2.638889, 0.333333
 751, 2.666667, 0.333333
 752, 2.694444, 0.333333
 753, 2.722222, 0.333333
 754, 2.750000, 0.333333
 755, 2.777778, 0.333333
 756, 2.805556, 0.333333
 757, 2.833333, 0.333333
 758, 2.861111, 0.333333
 759, 2.888889, 0.333333
 760, 2.916667, 0.333333
 761, 2.944444, 0.333333
 762, 2.972222, 0.333333
 763, 3.000000, 0.333333
 764, 0.000000, 0.388889
 765, 0.027778, 0.388889
 766, 0.055556, 0.388889
 767, 0.083333, 0.388889
 768, 0.111111, 0.388889
 769, 0.138889, 0.388889
 770, 0.166667, 0.388889
 771, 0.194444, 0.388889
 772, 0.222222, 0.388889
 773, 0.250000, 0.388889
 774, 0.277778, 0.388889
 775, 0.305556, 0.388889
 776, 0.333333, 0.388889
 777, 0.361111, 0.388889
 778, 0.388889, 0.388889
 779, 0.416667, 0.388889
 780, 0.444444, 0.388889
 781, 0.472222, 0.388889
 782, 0.500000, 0.388889
 783, 0.527778, 0.388889
 784, 0.555556, 0.388889
 785, 0.583333, 0.388889
 786, 0.611111, 0.388889
 787, 0.638889, 0.388889
 788, 0.666667, 0.388889
 789, 0.694444, 0.388889
 790, 0.722222, 0.388889
 791, 0.750000, 0.388889
 792, 0.777778, 0.388889
 793, 0.805556, 0.388889
 794, 0.833333, 0.388889
 795, 0.861111, 0.388889
 796, 0.888889, 0.388889
 797, 0.916667, 0.388889
 798, 0.944444, 0.388889
 799, 0.972222, 0.388889
 800, 1.000000, 0.388889
 801, 1.027778, 0.388889
 802, 1.055556, 0.388889
 803, 1.083333, 0.388889
 804, 1.111111, 0.388889
 805, 1.138889, 0.388889
 806, 1.166667, 0.388889
 807, 1.194444, 0.388889
 808, 1.222222, 0.388889
 809, 1.250000, 0.388889
 810, 1.277778, 0.388889
 811, 1.305556, 0.388889
 812, 1.333333, 0.388889
 813, 1.361111, 0.388889
 814, 1.388889, 0.388889
 815, 1.416667, 0.388889
 816, 1.444444, 0.388889
 817, 1.472222, 0.388889
 818, 1.500000, 0.388889
 819, 1.527778, 0.388889
 820, 1.555556, 0.388889
 821, 1.583333, 0.388889
 822, 1.611111, 0.388889
 823, 1.638889, 0.388889
 824, 1.666667, 0.388889
 825, 1.694444, 0.388889
 826, 1.722222, 0.388889
 827, 1.750000, 0.388889
 828, 1.777778, 0.388889
 829, 1.805556, 0.388889
 830, 1.833333, 0.388889
 831, 1.861111, 0.388889
 832, 1.888889, 0.388889
 833, 1.916667, 0.388889
 834, 1.944444, 0.388889
 835, 1.972222, 0.388889
 836, 2.000000, 0.388889
 837, 2.027778, 0.388889
 838, 2.055556, 0.388889
 839, 2.083333, 0.388889
 840, 2.111111, 0.388889
 841, 2.138889, 0.388889
 842, 2.166667, 0.388889
 843, 2.194444, 0.388889
 844, 2.222222, 0.388889
 845, 2.250000, 0.388889
 846, 2.277778, 0.388889
 847, 2.305556, 0.388889
 848, 2.333333, 0.388889
 849, 2.361111, 0.388889
 850, 2.388889, 0.388889
 851, 2.416667, 0.388889
 852, 2.444444, 0.388889
 853, 2.472222, 0.388889
 854, 2.500000, 0.388889
 855, 2.527778, 0.388889
 856, 2.555556, 0.388889
 857, 2.583333, 0.388889
 858, 2.611111, 0.388889
 859, 2.638889, 0.388889
 860, 2.666667, 0.388889
 861, 2.694444, 0.388889
 862, 2.722222, 0.388889
 863, 2.750000, 0.388889
 864, 2.777778, 0.388889
 865, 2.805556, 0.388889
 866, 2.833333, 0.388889
 867, 2.861111, 0.388889
 868, 2.888889, 0.388889
 869, 2.916667, 0.388889
 870, 2.944444, 0.388889
 871, 2.972222, 0.388889
 872, 3.000000, 0.388889
 873, 0.000000, 0.444444
 874, 0.027778, 0.444444
 875, 0.055556, 0.444444
 876, 0.083333, 0.444444
 877, 0.111111, 0.444444
 878, 0.138889, 0.444444
 879, 0.166667, 0.444444
 880, 0.194444, 0.444444
 881, 0.222222, 0.444444
 882, 0.250000, 0.444444
 883, 0.277778, 0.444444
 884, 0.305556, 0.444444
 885, 0.333333, 0.444444
 886, 0.361111, 0.444444
 887, 0.388889, 0.444444
 888, 0.416667, 0.444444
 889, 0.444444, 0.444444
 890, 0.472222, 0.444444
 891, 0.500000, 0.444444
 892, 0.527778, 0.444444
 893, 0.555556, 0.444444
 894, 0.583333, 0.444444
 895, 0.611111, 0.444444
 896, 0.638889, 0.444444
 897, 0.666667, 0.444444
 898, 0.694444, 0.444444
 899, 0.722222, 0.444444
 900, 0.750000, 0.444444
 901, 0.777778, 0.444444
 902, 0.805556, 0.444444
 903, 0.833333, 0.444444
 904, 0.861111, 0.444444
 905, 0.888889, 0.444444
 906, 0.916667, 0.444444
 907, 0.944444, 0.444444
 908, 0.972222, 0.444444
 909, 1.000000, 0.444444
 910, 1.027778, 0.444444
 911, 1.055556, 0.444444
 912, 1.083333, 0.444444
 913, 1.111111, 0.444444
 914, 1.138889, 0.444444
 915, 1.166667, 0.444444
 916, 1.194444, 0.444444
 917, 1.222222, 0.444444
 918, 1.250000, 0.444444
 919, 1.277778, 0.444444
 920, 1.305556, 0.444444
 921, 1.333333, 0.444444
 922, 1.361111, 0.444444
 923, 1.388889, 0.444444
 924, 1.416667, 0.444444
 925, 1.444444, 0.444444
 926, 1.472222, 0.444444
 927, 1.500000, 0.444444
 928, 1.527778, 0.444444
 929, 1.555556, 0.444444
 930, 1.583333, 0.444444
 931, 1.611111, 0.444444
 932, 1.638889, 0.444444
 933, 1.666667, 0.444444
 934, 1.694444, 0.444444
 935, 1.722222, 0.444444
 936, 1.750000, 0.444444
 937, 1.777778, 0.444444
 938, 1.805556, 0.444444
 939, 1.833333, 0.444444
 940, 1.861111, 0.444444
 941, 1.888889, 0.444444
 942, 1.916667, 0.444444
 943, 1.944444, 0.444444
 944, 1.972222, 0.444444
 945, 2.000000, 0.444444
 946, 2.027778, 0.444444
 947, 2.055556, 0.444444
 948, 2.083333, 0.444444
 949, 2.111111, 0.444444
 950, 2.138889, 0.444444
 951, 2.166667, 0.444444
 952, 2.194444, 0.444444
 953, 2.222222, 0.444444
 954, 2.250000, 0.444444
 955, 2.277778, 0.444444
 956, 2.305556, 0.444444
 957, 2.333333, 0.444444
 958, 2.361111, 0.444444
 959, 2.388889, 0.444444
 960, 2.416667, 0.444444
 961, 2.444444, 0.444444
 962, 2.472222, 0.444444
 963, 2.500000, 0.444444
 964, 2.527778, 0.444444
 965, 2.555556, 0.444444
 966, 2.583333, 0.444444
 967, 2.611111, 0.444444
 968, 2.638889, 0.444444
 969, 2.666667, 0.444444
 970, 2.694444, 0.444444
 971, 2.722222, 0.444444
 972, 2.750000, 0.444444
 973, 2.777778, 0.444444
 974, 2.805556, 0.444444
 975, 2.833333, 0.444444
 976, 2.861111, 0.444444
 977, 2.888889, 0.444444
 978, 2.916667, 0.444444
 979, 2.944444, 0.444444
 980, 2.972222, 0.444444
 981, 3.000000, 0.444444
 982, 0.000000, 0.500000
 983, 0.027778, 0.500000
 984, 0.055556, 0.500000
 985, 0.083333, 0.500000
 986, 0.111111, 0.500000
 987, 0.138889, 0.500000
 988, 0.166667, 0.500000
 989, 0.194444, 0.500000
 990, 0.222222, 0.500000
 991, 0.250000, 0.500000
 992, 0.277778, 0.500000
 993, 0.305556, 0.500000
 994, 0.333333, 0.500000
 995, 0.361111, 0.500000
 996, 0.388889, 0.500000
 997, 0.416667, 0.500000
 998, 0.444444, 0.500000
 999, 0.472222, 0.500000
 1000, 0.500000, 0.500000
 1001, 0.527778, 0.500000
 1002, 0.555556, 0.500000
 1003, 0.583333, 0.500000
 1004, 0.611111, 0.500000
 1005, 0.638889, 0.500000
 1006, 0.666667, 0.500000
 1007, 0.694444, 0.500000
 1008, 0.722222, 0.500000
 1009, 0.750000, 0.500000
 1010, 0.777778, 0.500000
 1011, 0.805556, 0.500000
 1012, 0.833333, 0.500000
 1013, 0.861111, 0.500000
 1014, 0.888889, 0.500000
 1015, 0.916667, 0.500000
 1016, 0.944444, 0.500000
 1017, 0.972222, 0.500000
 1018, 1.000000, 0.500000
 1019, 1.027778, 0.500000
 1020, 1.055556, 0.500000
 1021, 1.083333, 0.500000
 1022, 1.111111, 0.500000
 1023, 1.138889, 0.500000
 1024, 1.166667, 0.500000
 1025, 1.194444, 0.500000
 1026, 1.222222, 0.500000
 1027, 1.250000, 0.500000
 1028, 1.277778, 0.500000
 1029, 1.305556, 0.500000
 1030, 1.333333, 0.500000
 1031, 1.361111, 0.500000
 1032, 1.388889, 0.500000
 1033, 1.416667, 0.500000
 1034, 1.444444, 0.500000
 1035, 1.472222, 0.500000
 1036, 1.500000, 0.500000
 1037, 1.527778, 0.500000
 1038, 1.555556, 0.500000
 1039, 1.583333, 0.500000
 1040, 1.611111, 0.500000
 1041, 1.638889, 0.500000
 1042, 1.666667, 0.500000
 1043, 1.694444, 0.500000
 1044, 1.722222, 0.500000
 1045, 1.750000, 0.500000
 1046, 1.777778, 0.500000
 1047, 1.805556, 0.500000
 1048, 1.833333, 0.500000
 1049, 1.861111, 0.500000
 1050, 1.888889, 0.500000
 1051, 1.916667, 0.500000
 1052, 1.944444, 0.500000
 1053, 1.972222, 0.500000
 1054, 2.000000, 0.500000
 1055, 2.027778, 0.500000
 1056, 2.055556, 0.500000
 1057, 2.083333, 0.500000
 1058, 2.111111, 0.500000
 1059, 2.138889, 0.500000
 1060, 2.166667, 0.500000
 1061, 2.194444, 0.500000
 1062, 2.222222, 0.500000
 1063, 2.250000, 0.500000
 1064, 2.277778, 0.500000
 1065, 2.305556, 0.500000
 1066, 2.333333, 0.500000
 1067, 2.361111, 0.500000
 1068, 2.388889, 0.500000
 1069, 2.416667, 0.500000
 1070, 2.444444, 0.500000
 1071, 2.472222, 0.500000
 1072, 2.500000, 0.500000
 1073, 2.527778, 0.500000
 1074, 2.555556, 0.500000
 1075, 2.583333, 0.500000
 1076, 2.611111, 0.500000
 1077, 2.638889, 0.500000
 1078, 2.666667, 0.500000
 1079, 2.694444, 0.500000
 1080, 2.722222, 0.500000
 1081, 2.750000, 0.500000
 1082, 2.777778, 0.500000
 1083, 2.805556, 0.500000
 1084, 2.833333, 0.500000
 1085, 2.861111, 0.500000
 1086, 2.888889, 0.500000
 1087, 2.916667, 0.500000
 1088, 2.944444, 0.500000
 1089, 2.972222, 0.500000
 1090, 3.000000, 0.500000
 1091, 0.000000, 0.555556
 1092, 0.027778, 0.555556
 1093, 0.055556, 0.555556
 1094, 0.083333, 0.555556
 1095, 0.111111, 0.555556
 1096, 0.138889, 0.555556
 1097, 0.166667, 0.555556
 1098, 0.194444, 0.555556
 1099, 0.222222, 0.555556
 1100, 0.250000, 0.555556
 1101, 0.277778, 0.555556
 1102, 0.305556, 0.555556
 1103, 0.333333, 0.555556
 1104, 0.361111, 0.555556
 1105, 0.388889, 0.555556
 1106, 0.416667, 0.555556
 1107, 0.444444, 0.555556
 1108, 0.472222, 0.555556
 1109, 0.500000, 0.555556
 1110, 0.527778, 0.555556
 1111, 0.555556, 0.555556
 1112, 0.583333, 0.555556
 1113, 0.611111, 0.555556
 1114, 0.638889, 0.555556
 1115, 0.666667, 0.555556
 1116, 0.694444, 0.555556
 1117, 0.722222, 0.555556
 1118, 0.750000, 0.555556
 1119, 0.777778, 0.555556
 1120, 0.805556, 0.555556
 1121, 0.833333, 0.555556
 1122, 0.861111, 0.555556
 1123, 0.888889, 0.555556
 1124, 0.916667, 0.555556
 1125, 0.944444, 0.555556
 1126, 0.972222, 0.555556
 1127, 1.000000, 0.555556
 1128, 1.027778, 0.555556
 1129, 1.055556, 0.555556
 1130, 1.083333, 0.555556
 1131, 1.111111, 0.555556
 1132, 1.138889, 0.555556
 1133, 1.166667, 0.555556
 1134, 1.194444, 0.555556
 1135, 1.222222, 0.555556
 1136, 1.250000, 0.555556
 1137, 1.277778, 0.555556
 1138, 1.305556, 0.555556
 1139, 1.333333, 0.555556
 1140, 1.361111, 0.555556
 1141, 1.388889, 0.555556
 1142, 1.416667, 0.555556
 1143, 1.444444, 0.555556
 1144, 1.472222, 0.555556
 1145, 1.500000, 0.555556
 1146, 1.527778, 0.555556
 1147, 1.555556, 0.555556
 1148, 1.583333, 0.555556
 1149, 1.611111, 0.555556
 1150, 1.638889, 0.555556
 1151, 1.666667, 0.555556
 1152, 1.694444, 0.555556
 1153, 1.722222, 0.555556
 1154, 1.750000, 0.555556
 1155, 1.777778, 0.555556
 1156, 1.805556, 0.555556
 1157, 1.833333, 0.555556
 1158, 1.861111, 0.555556
 1159, 1.888889, 0.555556
 1160, 1.916667, 0.555556
 1161, 1.944444, 0.555556
 1162, 1.972222, 0.555556
 1163, 2.000000, 0.555556
 1164, 2.027778, 0.555556
 1165, 2.055556, 0.555556
 1166, 2.083333, 0.555556
 1167, 2.111111, 0.555556
 1168, 2.138889, 0.555556
 1169, 2.166667, 0.555556
 1170, 2.194444, 0.555556
 1171, 2.222222, 0.555556
 1172, 2.250000, 0.555556
 1173, 2.277778, 0.555556
 1174, 2.305556, 0.555556
 1175, 2.333333, 0.555556
 1176, 2.361111, 0.555556
 1177, 2.388889, 0.555556
 1178, 2.416667, 0.555556
 1179, 2.444444, 0.555556
 1180, 2.472222, 0.555556
 1181, 2.500000, 0.555556
 1182, 2.527778, 0.555556
 1183, 2.555556, 0.555556
 1184, 2.583333, 0.555556
 1185, 2.611111, 0.555556
 1186, 2.638889, 0.555556
 1187, 2.666667, 0.555556
 1188, 2.694444, 0.555556
 1189, 2.722222, 0.555556
 1190, 2.750000, 0.555556
 1191, 2.777778, 0.555556
 1192, 2.805556, 0.555556
 1193, 2.833333, 0.555556
 1194, 2.861111, 0.555556
 1195, 2.888889, 0.555556
 1196, 2.916667, 0.555556
 1197, 2.944444, 0.555556
 1198, 2.972222, 0.555556
 1199, 3.000000, 0.555556
 1200, 0.000000, 0.611111
 1201, 0.027778, 0.611111
 1202, 0.055556, 0.611111
 1203, 0.083333, 0.611111
 1204, 0.111111, 0.611111
 1205, 0.138889, 0.611111
 1206, 0.166667, 0.611111
 1207, 0.194444, 0.611111
 1208, 0.222222, 0.611111
 1209, 0.250000, 0.611111
 1210, 0.277778, 0.611111
 1211, 0.305556, 0.611111
 1212, 0.333333, 0.611111
 1213, 0.361111, 0.611111
 1214, 0.388889, 0.611111
 1215, 0.416667, 0.611111
 1216, 0.444444, 0.611111
 1217, 0.472222, 0.611111
 1218, 0.500000, 0.611111
 1219, 0.527778, 0.611111
 1220, 0.555556, 0.611111
 1221, 0.583333, 0.611111
 1222, 0.611111, 0.611111
 1223, 0.638889, 0.611111
 1224, 0.666667, 0.611111
 1225, 0.694444, 0.611111
 1226, 0.722222, 0.611111
 1227, 0.750000, 0.611111
 1228, 0.777778, 0.611111
 1229, 0.805556, 0.611111
 1230, 0.833333, 0.611111
 1231, 0.861111, 0.611111
 1232, 0.888889, 0.611111
 1233, 0.916667, 0.611111
 1234, 0.944444, 0.611111
 1235, 0.972222, 0.611111
 1236, 1.000000, 0.611111
 1237, 1.027778, 0.611111
 1238, 1.055556, 0.611111
 1239, 1.083333, 0.611111
 1240, 1.111111, 0.611111
 1241, 1.138889, 0.611111
 1242, 1.166667, 0.611111
 1243, 1.194444, 0.611111
 1244, 1.222222, 0.611111
 1245, 1.250000, 0.611111
 1246, 1.277778, 0.611111
 1247, 1.305556, 0.611111
 1248, 1.333333, 0.611111
 1249, 1.361111, 0.611111
 1250, 1.388889, 0.611111
 1251, 1.416667, 0.611111
 1252, 1.444444, 0.611111
 1253, 1.472222, 0.611111
 1254, 1.500000, 0.611111
 1255, 1.527778, 0.611111
 1256, 1.555556, 0.611111
 1257, 1.583333, 0.611111
 1258, 1.611111, 0.611111
 1259, 1.638889, 0.611111
 1260, 1.666667, 0.611111
 1261, 1.694444, 0.611111
 1262, 1.722222, 0.611111
 1263, 1.750000, 0.611111
 1264, 1.777778, 0.611111
 1265, 1.805556, 0.611111
 1266, 1.833333, 0.611111
 1267, 1.861111, 0.611111
 1268, 1.888889, 0.611111
 1269, 1.916667, 0.611111
 1270, 1.944444, 0.611111
 1271, 1.972222, 0.611111
 1272, 2.000000, 0.611111
 1273, 2.027778, 0.611111
 1274, 2.055556, 0.611111
 1275, 2.083333, 0.611111
 1276, 2.111111, 0.611111
 1277, 2.138889, 0.611111
 1278, 2.166667, 0.611111
 1279, 2.194444, 0.611111
 1280, 2.222222, 0.611111
 1281, 2.250000, 0.611111
 1282, 2.277778, 0.611111
 1283, 2.305556, 0.611111
 1284, 2.333333, 0.611111
 1285, 2.361111, 0.611111
 1286, 2.388889, 0.611111
 1287, 2.416667, 0.611111
 1288, 2.444444, 0.611111
 1289, 2.472222, 0.611111
 1290, 2.500000, 0.611111
 1291, 2.527778, 0.611111
 1292, 2.555556, 0.611111
 1293, 2.583333, 0.611111
 1294, 2.611111, 0.611111
 1295, 2.638889, 0.611111
 1296, 2.666667, 0.611111
 1297, 2.694444, 0.611111
 1298, 2.722222, 0.611111
 1299, 2.750000, 0.611111
 1300, 2.777778, 0.611111
 1301, 2.805556, 0.611111
 1302, 2.833333, 0.611111
 1303, 2.861111, 0.611111
 1304, 2.888889, 0.611111
 1305, 2.916667, 0.611111
 1306, 2.944444, 0.611111
 1307, 2.972222, 0.611111
 1308, 3.000000, 0.611111
 1309, 0.000000, 0.666667
 1310, 0.027778, 0.666667
 1311, 0.055556, 0.666667
 1312, 0.083333, 0.666667
 1313, 0.111111, 0.666667
 1314, 0.138889, 0.666667
 1315, 0.166667, 0.666667
 1316, 0.194444, 0.666667
 1317, 0.222222, 0.666667
 1318, 0.250000, 0.666667
 1319, 0.277778, 0.666667
 1320, 0.305556, 0.666667
 1321, 0.333333, 0.666667
 1322, 0.361111, 0.666667
 1323, 0.388889, 0.666667
 1324, 0.416667, 0.666667
 1325, 0.444444, 0.666667
 1326, 0.472222, 0.666667
 1327, 0.500000, 0.666667
 1328, 0.527778, 0.666667
 1329, 0.555556, 0.666667
 1330, 0.583333, 0.666667
 1331, 0.611111, 0.666667
 1332, 0.638889, 0.666667
 1333, 0.666667, 0.666667
 1334, 0.694444, 0.666667
 1335, 0.722222, 0.666667
 1336, 0.750000, 0.666667
 1337, 0.777778, 0.666667
 1338, 0.805556, 0.666667
 1339, 0.833333, 0.666667
 1340, 0.861111, 0.666667
 1341, 0.888889, 0.666667
 1342, 0.916667, 0.666667
 1343, 0.944444, 0.666667
 1344, 0.972222, 0.666667
 1345, 1.000000, 0.666667
 1346, 1.027778, 0.666667
 1347, 1.055556, 0.666667
 1348, 1.083333, 0.666667
 1349, 1.111111, 0.666667
 1350, 1.138889, 0.666667
 1351, 1.166667, 0.666667
 1352, 1.194444, 0.666667
 1353, 1.222222, 0.666667
 1354, 1.250000, 0.666667
 1355, 1.277778, 0.666667
 1356, 1.305556, 0.666667
 1357, 1.333333, 0.666667
 1358, 1.361111, 0.666667
 1359, 1.388889, 0.666667
 1360, 1.416667, 0.666667
 1361, 1.444444, 0.666667
 1362, 1.472222, 0.666667
 1363, 1.500000, 0.666667
 1364, 1.527778, 0.666667
 1365, 1.555556, 0.666667
 1366, 1.583333, 0.666667
 1367, 1.611111, 0.666667
 1368, 1.638889, 0.666667
 1369, 1.666667, 0.666667
 1370, 1.694444, 0.666667
 1371, 1.722222, 0.666667
 1372, 1.750000, 0.666667
 1373, 1.777778, 0.666667
 1374, 1.805556, 0.666667
 1375, 1.833333, 0.666667
 1376, 1.861111, 0.666667
 1377, 1.888889, 0.666667
 1378, 1.916667, 0.666667
 1379, 1.944444, 0.666667
 1380, 1.972222, 0.666667
 1381, 2.000000, 0.666667
 1382, 2.027778, 0.666667
 1383, 2.055556, 0.666667
 1384, 2.083333, 0.666667
 1385, 2.111111, 0.666667
 1386, 2.138889, 0.666667
 1387, 2.166667, 0.666667
 1388, 2.194444, 0.666667
 1389, 2.222222, 0.666667
 1390, 2.250000, 0.666667
 1391, 2.277778, 0.666667
 1392, 2.305556, 0.666667
 1393, 2.333333, 0.666667
 1394, 2.361111, 0.666667
 1395, 2.388889, 0.666667
 1396, 2.416667, 0.666667
 1397, 2.444444, 0.666667
 1398, 2.472222, 0.666667
 1399, 2.500000, 0.666667
 1400, 2.527778, 0.666667
 1401, 2.555556, 0.666667
 1402, 2.583333, 0.666667
 1403, 2.611111, 0.666667
 1404, 2.638889, 0.666667
 1405, 2.666667, 0.666667
 1406, 2.694444, 0.666667
 1407, 2.722222, 0.666667
 1408, 2.750000, 0.666667
 1409, 2.777778, 0.666667
 1410, 2.805556, 0.666667
 1411, 2.833333, 0.666667
 1412, 2.861111, 0.666667
 1413, 2.888889, 0.666667
 1414, 2.916667, 0.666667
 1415, 2.944444, 0.666667
 1416, 2.972222, 0.666667
 1417, 3.000000, 0.666667
 1418, 0.000000, 0.722222
 1419, 0.027778, 0.722222
 1420, 0.055556, 0.722222
 1421, 0.083333, 0.722222
 1422, 0.111111, 0.722222
 1423, 0.138889, 0.722222
 1424, 0.166667, 0.722222
 1425, 0.194444, 0.722222
 1426, 0.222222, 0.722222
 1427, 0.250000, 0.722222
 1428, 0.277778, 0.722222
 1429, 0.305556, 0.722222
 1430, 0.333333, 0.722222
 1431, 0.361111, 0.722222
 1432, 0.388889, 0.722222
 1433, 0.416667, 0.722222
 1434, 0.444444, 0.722222
 1435, 0.472222, 0.722222
 1436, 0.500000, 0.722222
 1437, 0.527778, 0.722222
 1438, 0.555556, 0.722222
 1439, 0.583333, 0.722222
 1440, 0.611111, 0.722222
 1441, 0.638889, 0.722222
 1442, 0.666667, 0.722222
 1443, 0.694444, 0.722222
 1444, 0.722222, 0.722222
 1445, 0.750000, 0.722222
 1446, 0.777778, 0.722222
 1447, 0.805556, 0.722222
 1448, 0.833333, 0.722222
 1449, 0.861111, 0.722222
 1450, 0.888889, 0.722222
 1451, 0.916667, 0.722222
 1452, 0.944444, 0.722222
 1453, 0.972222, 0.722222
 1454, 1.000000, 0.722222
 1455, 1.027778, 0.722222
 1456, 1.055556, 0.722222
 1457, 1.083333, 0.722222
 1458, 1.111111, 0.722222
 1459, 1.138889, 0.722222
 1460, 1.166667, 0.722222
 1461, 1.194444, 0.722222
 1462, 1.222222, 0.722222
 1463, 1.250000, 0.722222
 1464, 1.277778, 0.722222
 1465, 1.305556, 0.722222
 1466, 1.333333, 0.722222
 1467, 1.361111, 0.722222
 1468, 1.388889, 0.722222
 1469, 1.416667, 0.722222
 1470, 1.444444, 0.722222
 1471, 1.472222, 0.722222
 1472, 1.500000, 0.722222
 1473, 1.527778, 0.722222
 1474, 1.555556, 0.722222
 1475, 1.583333, 0.722222
 1476, 1.611111, 0.722222
 1477, 1.638889, 0.722222
 1478, 1.666667, 0.722222
 1479, 1.694444, 0.722222
 1480, 1.722222, 0.722222
 1481, 1.750000, 0.722222
 1482, 1.777778, 0.722222
 1483, 1.805556, 0.722222
 1484, 1.833333, 0.722222
 1485, 1.861111, 0.722222
 1486, 1.888889, 0.722222
 1487, 1.916667, 0.722222
 1488, 1.944444, 0.722222
 1489, 1.972222, 0.722222
 1490, 2.000000, 0.722222
 1491, 2.027778, 0.722222
 1492, 2.055556, 0.722222
 1493, 2.083333, 0.722222
 1494, 2.111111, 0.722222
 1495, 2.138889, 0.722222
 1496, 2.166667, 0.722222
 1497, 2.194444, 0.722222
 1498, 2.222222, 0.722222
 1499, 2.250000, 0.722222
 1500, 2.277778, 0.722222
 1501, 2.305556, 0.722222
 1502, 2.333333, 0.722222
 1503, 2.361111, 0.722222
 1504, 2.388889, 0.722222
 1505, 2.416667, 0.722222
 1506, 2.444444, 0.722222
 1507, 2.472222, 0.722222
 1508, 2.500000, 0.722222
 1509, 2.527778, 0.722222
 1510, 2.555556, 0.722222
 1511, 2.583333, 0.722222
 1512, 2.611111, 0.722222
 1513, 2.638889, 0.722222
 1514, 2.666667, 0.722222
 1515, 2.694444, 0.722222
 1516, 2.722222, 0.722222
 1517, 2.750000, 0.722222
 1518, 2.777778, 0.722222
 1519, 2.805556, 0.722222
 1520, 2.833333, 0.722222
 1521, 2.861111, 0.722222
 1522, 2.888889, 0.722222
 1523, 2.916667, 0.722222
 1524, 2.944444, 0.722222
 1525, 2.972222, 0.722222
 1526, 3.000000, 0.722222
 1527, 0.000000, 0.777778
 1528, 0.027778, 0.777778
 1529, 0.055556, 0.777778
 1530, 0.083333, 0.777778
 1531, 0.111111, 0.777778
 1532, 0.138889, 0.777778
 1533, 0.166667, 0.777778
 1534, 0.194444, 0.777778
 1535, 0.222222, 0.777778
 1536, 0.250000, 0.777778
 1537, 0.277778, 0.777778
 1538, 0.305556, 0.777778
 1539, 0.333333, 0.777778
 1540, 0.361111, 0.777778
 1541, 0.388889, 0.777778
 1542, 0.416667, 0.777778
 1543, 0.444444, 0.777778
 1544, 0.472222, 0.777778
 1545, 0.500000, 0.777778
 1546, 0.527778, 0.777778
 1547, 0.555556, 0.777778
 1548, 0.583333, 0.777778
 1549, 0.611111, 0.777778
 1550, 0.638889, 0.777778
 1551, 0.666667, 0.777778
 1552, 0.694444, 0.777778
 1553, 0.722222, 0.777778
 1554, 0.750000, 0.777778
 1555, 0.777778, 0.777778
 1556, 0.805556, 0.777778
 1557, 0.833333, 0.777778
 1558, 0.861111, 0.777778
 1559, 0.888889, 0.777778
 1560, 0.916667, 0.777778
 1561, 0.944444, 0.777778
 1562, 0.972222, 0.777778
 1563, 1.000000, 0.777778
 1564, 1.027778, 0.777778
 1565, 1.055556, 0.777778
 1566, 1.083333, 0.777778
 1567, 1.111111, 0.777778
 1568, 1.138889, 0.777778
 1569, 1.166667, 0.777778
 1570, 1.194444, 0.777778
 1571, 1.222222, 0.777778
 1572, 1.250000, 0.777778
 1573, 1.277778, 0.777778
 1574, 1.305556, 0.777778
 1575, 1.333333, 0.777778
 1576, 1.361111, 0.777778
 1577, 1.388889, 0.777778
 1578, 1.416667, 0.777778
 1579, 1.444444, 0.777778
 1580, 1.472222, 0.777778
 1581, 1.500000, 0.777778
 1582, 1.527778, 0.777778
 1583, 1.555556, 0.777778
 1584, 1.583333, 0.777778
 1585, 1.611111, 0.777778
 1586, 1.638889, 0.777778
 1587, 1.666667, 0.777778
 1588, 1.694444, 0.777778
 1589, 1.722222, 0.777778
 1590, 1.750000, 0.777778
 1591, 1.777778, 0.777778
 1592, 1.805556, 0.777778
 1593, 1.833333, 0.777778
 1594, 1.861111, 0.777778
 1595, 1.888889, 0.777778
 1596, 1.916667, 0.777778
 1597, 1.944444, 0.777778
 1598, 1.972222, 0.777778
 1599, 2.000000, 0.777778
 1600, 2.027778, 0.777778
 1601, 2.055556, 0.777778
 1602, 2.083333, 0.777778
 1603, 2.111111, 0.777778
 1604, 2.138889, 0.777778
 1605, 2.166667, 0.777778
 1606, 2.194444, 0.777778
 1607, 2.222222, 0.777778
 1608, 2.250000, 0.777778
 1609, 2.277778, 0.777778
 1610, 2.305556, 0.777778
 1611, 2.333333, 0.777778
 1612, 2.361111, 0.777778
 1613, 2.388889, 0.777778
 1614, 2.416667, 0.777778
 1615, 2.444444, 0.777778
 1616, 2.472222, 0.777778
 1617, 2.500000, 0.777778
 1618, 2.527778, 0.777778
 1619, 2.555556, 0.777778
 1620, 2.583333, 0.777778
 1621, 2.611111, 0.777778
 1622, 2.638889, 0.777778
 1623, 2.666667, 0.777778
 1624, 2.694444, 0.777778
 1625, 2.722222, 0.777778
 1626, 2.750000, 0.777778
 1627, 2.777778, 0.777778
 1628, 2.805556, 0.777778
 1629, 2.833333, 0.777778
 1630, 2.861111, 0.777778
 1631, 2.888889, 0.777778
 1632, 2.916667, 0.777778
 1633, 2.944444, 0.777778
 1634, 2.972222, 0.777778
 1635, 3.000000, 0.777778
 1636, 0.000000, 0.833333
 1637, 0.027778, 0.833333
 1638, 0.055556, 0.833333
 1639, 0.083333, 0.833333
 1640, 0.111111, 0.833333
 1641, 0.138889, 0.833333
 1642, 0.166667, 0.833333
 1643, 0.194444, 0.833333
 1644, 0.222222, 0.833333
 1645, 0.250000, 0.833333
 1646, 0.277778, 0.833333
 1647, 0.305556, 0.833333
 1648, 0.333333, 0.833333
 1649, 0.361111, 0.833333
 1650, 0.388889, 0.833333
 1651, 0.416667, 0.833333
 1652, 0.444444, 0.833333
 1653, 0.472222, 0.833333
 1654, 0.500000, 0.833333
 1655, 0.527778, 0.833333
 1656, 0.555556, 0.833333
 1657, 0.583333, 0.833333
 1658, 0.611111, 0.833333
 1659, 0.638889, 0.833333
 1660, 0.666667, 0.833333
 1661, 0.694444, 0.833333
 1662, 0.722222, 0.833333
 1663, 0.750000, 0.833333
 1664, 0.777778, 0.833333
 1665, 0.805556, 0.833333
 1666, 0.833333, 0.833333
 1667, 0.861111, 0.833333
 1668, 0.888889, 0.833333
 1669, 0.916667, 0.833333
 1670, 0.944444, 0.833333
 1671, 0.972222, 0.833333
 1672, 1.000000, 0.833333
 1673, 1.027778, 0.833333
 1674, 1.055556, 0.833333
 1675, 1.083333, 0.833333
 1676, 1.111111, 0.833333
 1677, 1.138889, 0.833333
 1678, 1.166667, 0.833333
 1679, 1.194444, 0.833333
 1680, 1.222222, 0.833333
 1681, 1.250000, 0.833333
 1682, 1.277778, 0.833333
 1683, 1.305556, 0.833333
 1684, 1.333333, 0.833333
 1685, 1.361111, 0.833333
 1686, 1.388889, 0.833333
 1687, 1.416667, 0.833333
 1688, 1.444444, 0.833333
 1689, 1.472222, 0.833333
 1690, 1.500000, 0.833333
 1691, 1.527778, 0.833333
 1692, 1.555556, 0.833333
 1693, 1.583333, 0.833333
 1694, 1.611111, 0.833333
 1695, 1.638889, 0.833333
 1696, 1.666667, 0.833333
 1697, 1.694444, 0.833333
 1698, 1.722222, 0.833333
 1699, 1.750000, 0.833333
 1700, 1.777778, 0.833333
 1701, 1.805556, 0.833333
 1702, 1.833333, 0.833333
 1703, 1.861111, 0.833333
 1704, 1.888889, 0.833333
 1705, 1.916667, 0.833333
 1706, 1.944444, 0.833333
 1707, 1.972222, 0.833333
 1708, 2.000000, 0.833333
 1709, 2.027778, 0.833333
 1710, 2.055556, 0.833333
 1711, 2.083333, 0.833333
 1712, 2.111111, 0.833333
 1713, 2.138889, 0.833333
 1714, 2.166667, 0.833333
 1715, 2.194444, 0.833333
 1716, 2.222222, 0.833333
 1717, 2.250000, 0.833333
 1718, 2.277778, 0.833333
 1719, 2.305556, 0.833333
 1720, 2.333333, 0.833333
 1721, 2.361111, 0.833333
 1722, 2.388889, 0.833333
 1723, 2.416667, 0.833333
 1724, 2.444444, 0.833333
 1725, 2.472222, 0.833333
 1726, 2.500000, 0.833333
 1727, 2.527778, 0.833333
 1728, 2.555556, 0.833333
 1729, 2.583333, 0.833333
 1730, 2.611111, 0.833333
 1731, 2.638889, 0.833333
 1732, 2.666667, 0.833333
 1733, 2.694444, 0.833333
 1734, 2.722222, 0.833333
 1735, 2.750000, 0.833333
 1736, 2.777778, 0.833333
 1737, 2.805556, 0.833333
 1738, 2.833333, 0.833333
 1739, 2.861111, 0.833333
 1740, 2.888889, 0.833333
 1741, 2.916667, 0.833333
 1742, 2.944444, 0.833333
 1743, 2.972222, 0.833333
 1744, 3.000000, 0.833333
 1745, 0.000000, 0.888889
 1746, 0.027778, 0.888889
 1747, 0.055556, 0.888889
 1748, 0.083333, 0.888889
 1749, 0.111111, 0.888889
 1750, 0.138889, 0.888889
 1751, 0.166667, 0.888889
 1752, 0.194444, 0.888889
 1753, 0.222222, 0.888889
 1754, 0.250000, 0.888889
 1755, 0.277778, 0.888889
 1756, 0.305556, 0.888889
 1757, 0.333333, 0.888889
 1758, 0.361111, 0.888889
 1759, 0.388889, 0.888889
 1760, 0.416667, 0.888889
 1761, 0.444444, 0.888889
 1762, 0.472222, 0.888889
 1763, 0.500000, 0.888889
 1764, 0.527778, 0.888889
 1765, 0.555556, 0.888889
 1766, 0.583333, 0.888889
 1767, 0.611111, 0.888889
 1768, 0.638889, 0.888889
 1769, 0.666667, 0.888889
 1770, 0.694444, 0.888889
 1771, 0.722222, 0.888889
 1772, 0.750000, 0.888889
 1773, 0.777778, 0.888889
 1774, 0.805556, 0.888889
 1775, 0.833333, 0.888889
 1776, 0.861111, 0.888889
 1777, 0.888889, 0.888889
 1778, 0.916667, 0.888889
 1779, 0.944444, 0.888889
 1780, 0.972222, 0.888889
 1781, 1.000000, 0.888889
 1782, 1.027778, 0.888889
 1783, 1.055556, 0.888889
 1784, 1.083333, 0.888889
 1785, 1.111111, 0.888889
 1786, 1.138889, 0.888889
 1787, 1.166667, 0.888889
 1788, 1.194444, 0.888889
 1789, 1.222222, 0.888889
 1790, 1.250000, 0.888889
 1791, 1.277778, 0.888889
 1792, 1.305556, 0.888889
 1793, 1.333333, 0.888889
 1794, 1.361111, 0.888889
 1795, 1.388889, 0.888889
 1796, 1.416667, 0.888889
 1797, 1.444444, 0.888889
 1798, 1.472222, 0.888889
 1799, 1.500000, 0.888889
 1800, 1.527778, 0.888889
 1801, 1.555556, 0.888889
 1802, 1.583333, 0.888889
 1803, 1.611111, 0.888889
 1804, 1.638889, 0.888889
 1805, 1.666667, 0.888889
 1806, 1.694444, 0.888889
 1807, 1.722222, 0.888889
 1808, 1.750000, 0.888889
 1809, 1.777778, 0.888889
 1810, 1.805556, 0.888889
 1811, 1.833333, 0.888889
 1812, 1.861111, 0.888889
 1813, 1.888889, 0.888889
 1814, 1.916667, 0.888889
 1815, 1.944444, 0.888889
 1816, 1.972222, 0.888889
 1817, 2.000000, 0.888889
 1818, 2.027778, 0.888889
 1819, 2.055556, 0.888889
 1820, 2.083333, 0.888889
 1821, 2.111111, 0.888889
 1822, 2.138889, 0.888889
 1823, 2.166667, 0.888889
 1824, 2.194444, 0.888889
 1825, 2.222222, 0.888889
 1826, 2.250000, 0.888889
 1827, 2.277778, 0.888889
 1828, 2.305556, 0.888889
 1829, 2.333333, 0.888889
 1830, 2.361111, 0.888889
 1831, 2.388889, 0.888889
 1832, 2.416667, 0.888889
 1833, 2.444444, 0.888889
 1834, 2.472222, 0.888889
 1835, 2.500000, 0.888889
 1836, 2.527778, 0.888889
 1837, 2.555556, 0.888889
 1838, 2.583333, 0.888889
 1839, 2.611111, 0.888889
 1840, 2.638889, 0.888889
 1841, 2.666667, 0.888889
 1842, 2.694444, 0.888889
 1843, 2.722222, 0.888889
 1844, 2.750000, 0.888889
 1845, 2.777778, 0.888889
 1846, 2.805556, 0.888889
 1847, 2.833333, 0.888889
 1848, 2.861111, 0.888889
 1849, 2.888889, 0.888889
 1850, 2.916667, 0.888889
 1851, 2.944444, 0.888889
 1852, 2.972222, 0.888889
 1853, 3.000000, 0.888889
 1854, 0.000000, 0.944444
 1855, 0.027778, 0.944444
 1856, 0.055556, 0.944444
 1857, 0.083333, 0.944444
 1858, 0.111111, 0.944444
 1859, 0.138889, 0.944444
 1860, 0.166667, 0.944444
 1861, 0.194444, 0.944444
 1862, 0.222222, 0.944444
 1863, 0.250000, 0.944444
 1864, 0.277778, 0.944444
 1865, 0.305556, 0.944444
 1866, 0.333333, 0.944444
 1867, 0.361111, 0.944444
 1868, 0.388889, 0.944444
 1869, 0.416667, 0.944444
 1870, 0.444444, 0.944444
 1871, 0.472222, 0.944444
 1872, 0.500000, 0.944444
 1873, 0.527778, 0.944444
 1874, 0.555556, 0.944444
 1875, 0.583333, 0.944444
 1876, 0.611111, 0.944444
 1877, 0.638889, 0.944444
 1878, 0.666667, 0.944444
 1879, 0.694444, 0.944444
 1880, 0.722222, 0.944444
 1881, 0.750000, 0.944444
 1882, 0.777778, 0.944444
 1883, 0.805556, 0.944444
 1884, 0.833333, 0.944444
 1885, 0.861111, 0.944444
 1886, 0.888889, 0.944444
 1887, 0.916667, 0.944444
 1888, 0.944444, 0.944444
 1889, 0.972222, 0.944444
 1890, 1.000000, 0.944444
 1891, 1.027778, 0.944444
 1892, 1.055556, 0.944444
 1893, 1.083333, 0.944444
 1894, 1.111111, 0.944444
 1895, 1.138889, 0.944444
 1896, 1.166667, 0.944444
 1897, 1.194444, 0.944444
 1898, 1.222222, 0.944444
 1899, 1.250000, 0.944444
 1900, 1.277778, 0.944444
 1901, 1.305556, 0.944444
 1902, 1.333333, 0.944444
 1903, 1.361111, 0.944444
 1904, 1.388889, 0.944444
 1905, 1.416667, 0.944444
 1906, 1.444444, 0.944444
 1907, 1.472222, 0.944444
 1908, 1.500000, 0.944444
 1909, 1.527778, 0.944444
 1910, 1.555556, 0.944444
 1911, 1.583333, 0.944444
 1912, 1.611111, 0.944444
 1913, 1.638889, 0.944444
 1914, 1.666667, 0.944444
 1915, 1.694444, 0.944444
 1916, 1.722222, 0.944444
 1917, 1.750000, 0.944444
 1918, 1.777778, 0.944444
 1919, 1.805556, 0.944444
 1920, 1.833333, 0.944444
 1921, 1.861111, 0.944444
 1922, 1.888889, 0.944444
 1923, 1.916667, 0.944444
 1924, 1.944444, 0.944444
 1925, 1.972222, 0.944444
 1926, 2.000000, 0.944444
 1927, 2.027778, 0.944444
 1928, 2.055556, 0.944444
 1929, 2.083333, 0.944444
 1930, 2.111111, 0.944444
 1931, 2.138889, 0.944444
 1932, 2.166667, 0.944444
 1933, 2.194444, 0.944444
 1934, 2.222222, 0.944444
 1935, 2.250000, 0.944444
 1936, 2.277778, 0.944444
 1937, 2.305556, 0.944444
 1938, 2.333333, 0.944444
 1939, 2.361111, 0.944444
 1940, 2.388889, 0.944444
 1941, 2.416667, 0.944444
 1942, 2.444444, 0.944444
 1943, 2.472222, 0.944444
 1944, 2.500000, 0.944444
 1945, 2.527778, 0.944444
 1946, 2.555556, 0.944444
 1947, 2.583333, 0.944444
 1948, 2.611111, 0.944444
 1949, 2.638889, 0.944444
 1950, 2.666667, 0.944444
 1951, 2.694444, 0.944444
 1952, 2.722222, 0.944444
 1953, 2.750000, 0.944444
 1954, 2.777778, 0.944444
 1955, 2.805556, 0.944444
 1956, 2.833333, 0.944444
 1957, 2.861111, 0.944444
 1958, 2.888889, 0.944444
 1959, 2.916667, 0.944444
 1960, 2.944444, 0.944444
 1961, 2.972222, 0.944444
 1962, 3.000000, 0.944444
 1963, 0.000000, 1.000000
 1964, 0.027778, 1.000000
 1965, 0.055556, 1.000000
 1966, 0.083333, 1.000000
 1967, 0.111111, 1.000000
 1968, 0.138889, 1.000000
 1969, 0.166667, 1.000000
 1970, 0.194444, 1.000000
 1971, 0.222222, 1.000000
 1972, 0.250000, 1.000000
 1973, 0.277778, 1.000000
 1974, 0.305556, 1.000000
 1975, 0.333333, 1.000000
 1976, 0.361111, 1.000000
 1977, 0.388889, 1.000000
 1978, 0.416667, 1.000000
 1979, 0.444444, 1.000000
 1980, 0.472222, 1.000000
 1981, 0.500000, 1.000000
 1982, 0.527778, 1.000000
 1983, 0.555556, 1.000000
 1984, 0.583333, 1.000000
 1985, 0.611111, 1.000000
 1986, 0.638889, 1.000000
 1987, 0.666667, 1.000000
 1988, 0.694444, 1.000000
 1989, 0.722222, 1.000000
 1990, 0.750000, 1.000000
 1991, 0.777778, 1.000000
 1992, 0.805556, 1.000000
 1993, 0.833333, 1.000000
 1994, 0.861111, 1.000000
 1995, 0.888889, 1.000000
 1996, 0.916667, 1.000000
 1997, 0.944444, 1.000000
 1998, 0.972222, 1.000000
 1999, 1.000000, 1.000000
 2000, 1.027778, 1.000000
 2001, 1.055556, 1.000000
 2002, 1.083333, 1.000000
 2003, 1.111111, 1.000000
 2004, 1.138889, 1.000000
 2005, 1.166667, 1.000000
 2006, 1.194444, 1.000000
 2007, 1.222222, 1.000000
 2008, 1.250000, 1.000000
 2009, 1.277778, 1.000000
 2010, 1.305556, 1.000000
 2011, 1.333333, 1.000000
 2012, 1.361111, 1.000000
 2013, 1.388889, 1.000000
 2014, 1.416667, 1.000000
 2015, 1.444444, 1.000000
 2016, 1.472222, 1.000000
 2017, 1.500000, 1.000000
 2018, 1.527778, 1.000000
 2019, 1.555556, 1.000000
 2020, 1.583333, 1.000000
 2021, 1.611111, 1.000000
 2022, 1.638889, 1.000000
 2023, 1.666667, 1.000000
 2024, 1.694444, 1.000000
 2025, 1.722222, 1.000000
 2026, 1.750000, 1.000000
 2027, 1.777778, 1.000000
 2028, 1.805556, 1.000000
 2029, 1.833333, 1.000000
 2030, 1.861111, 1.000000
 2031, 1.888889, 1.000000
 2032, 1.916667, 1.000000
 2033, 1.944444, 1.000000
 2034, 1.972222, 1.000000
 2035, 2.000000, 1.000000
 2036, 2.027778, 1.000000
 2037, 2.055556, 1.000000
 2038, 2.083333, 1.000000
 2039, 2.111111, 1.000000
 2040, 2.138889, 1.000000
 2041, 2.166667, 1.000000
 2042, 2.194444, 1.000000
 2043, 2.222222, 1.000000
 2044, 2.250000, 1.000000
 2045, 2.277778, 1.000000
 2046, 2.305556, 1.000000
 2047, 2.333333, 1.000000
 2048, 2.361111, 1.000000
 2049, 2.388889, 1.000000
 2050, 2.416667, 1.000000
 2051, 2.444444, 1.000000
 2052, 2.472222, 1.000000
 2053, 2.500000, 1.000000
 2054, 2.527778, 1.000000
 2055, 2.555556, 1.000000
 2056, 2.583333, 1.000000
 2057, 2.611111, 1.000000
 2058, 2.638889, 1.000000
 2059, 2.666667, 1.000000
 2060, 2.694444, 1.000000
 2061, 2.722222, 1.000000
 2062, 2.750000, 1.000000
 2063, 2.777778, 1.000000
 2064, 2.805556, 1.000000
 2065, 2.833333, 1.000000
 2066, 2.861111, 1.000000
 2067, 2.888889, 1.000000
 2068, 2.916667, 1.000000
 2069, 2.944444, 1.000000
 2070, 2.972222, 1.000000
 2071, 3.000000, 1.000000
*ELEMENT, TYPE=CPE4, ELSET=FILM
 1, 1, 2, 111, 110
 2, 2, 3, 112, 111
 3, 3, 4, 113, 112
 4, 4, 5, 114, 113
 5, 5, 6, 115, 114
 6, 6, 7, 116, 115
 7, 7, 8, 117, 116
 8, 8, 9, 118, 117
 9, 9, 10, 119, 118
 10, 10, 11, 120, 119
 11, 11, 12, 121, 120
 12, 12, 13, 122, 121
 13, 13, 14, 123, 122
 14, 14, 15, 124, 123
 15, 15, 16, 125, 124
 16, 16, 17, 126, 125
 17, 17, 18, 127, 126
 18, 18, 19, 128, 127
 19, 19, 20, 129, 128
 20, 20, 21, 130, 129
 21, 21, 22, 131, 130
 22, 22, 23, 132, 131
 23, 23, 24, 133, 132
 24, 24, 25, 134, 133
 25, 25, 26, 135, 134
 26, 26, 27, 136, 135
 27, 27, 28, 137, 136
 28, 28, 29, 138, 137
 29, 29, 30, 139, 138
 30, 30, 31, 140, 139
 31, 31, 32, 141, 140
 32, 32, 33, 142, 141
 33, 33, 34, 143, 142
 34, 34, 35, 144, 143
 35, 35, 36, 145, 144
 36, 36, 37, 146, 145
 37, 37, 38, 147, 146
 38, 38, 39, 148, 147
 39, 39, 40, 149, 148
 40, 40, 41, 150, 149
 41, 41, 42, 151, 150
 42, 42, 43, 152, 151
 43, 43, 44, 153, 152
 44, 44, 45, 154, 153
 45, 45, 46, 155, 154
 46, 46, 47, 156, 155
 47, 47, 48, 157, 156
 48, 48, 49, 158, 157
 49, 49, 50, 159, 158
 50, 50, 51, 160, 159
 51, 51, 52, 161, 160
 52, 52, 53, 162, 161
 53, 53, 54, 163, 162
 54, 54, 55, 164, 163
 55, 55, 56, 165, 164
 56, 56, 57, 166, 165
 57, 57, 58, 167, 166
 58, 58, 59, 168, 167
 59, 59, 60, 169, 168
 60, 60, 61, 170, 169
 61, 61, 62, 171, 170
 62, 62, 63, 172, 171
 63, 63, 64, 173, 172
 64, 64, 65, 174, 173
 65, 65, 66, 175, 174
 66, 66, 67, 176, 175
 67, 67, 68, 177, 176
 68, 68, 69, 178, 177
 69, 69, 70, 179, 178
 70, 70, 71, 180, 179
 71, 71, 72, 181, 180
 72, 72, 73, 182, 181
 73, 73, 74, 183, 182
 74, 74, 75, 184, 183
 75, 75, 76, 185, 184
 76, 76, 77, 186, 185
 77, 77, 78, 187, 186
 78, 78, 79, 188, 187
 79, 79, 80, 189, 188
 80, 80, 81, 190, 189
 81, 81, 82, 191, 190
 82, 82, 83, 192, 191
 83, 83, 84, 193, 192
 84, 84, 85, 194, 193
 85, 85, 86, 195, 194
 86, 86, 87, 196, 195
 87, 87, 88, 197, 196
 88, 88, 89, 198, 197
 89, 89, 90, 199, 198
 90, 90, 91, 200, 199
 91, 91, 92, 201, 200
 92, 92, 93, 202, 201
 93, 93, 94, 203, 202
 94, 94, 95, 204, 203
 95, 95, 96, 205, 204
 96, 96, 97, 206, 205
 97, 97, 98, 207, 206
 98, 98, 99, 208, 207
 99, 99, 100, 209, 208
 100, 100, 101, 210, 209
 101, 101, 102, 211, 210
 102, 102, 103, 212, 211
 103, 103, 104, 213, 212
 104, 104, 105, 214, 213
 105, 105, 106, 215, 214
 106, 106, 107, 216, 215
 107, 107, 108, 217, 216
 108, 108, 109, 218, 217
 109, 110, 111, 220, 219
 110, 111, 112, 221, 220
 111, 112, 113, 222, 221
 112, 113, 114, 223, 222
 113, 114, 115, 224, 223
 114, 115, 116, 225, 224
 115, 116, 117, 226, 225
 116, 117, 118, 227, 226
 117, 118, 119, 228, 227
 118, 119, 120, 229, 228
 119, 120, 121, 230, 229
 120, 121, 122, 231, 230
 121, 122, 123, 232, 231
 122, 123, 124, 233, 232
 123, 124, 125, 234, 233
 124, 125, 126, 235, 234
 125, 126, 127, 236, 235
 126, 127, 128, 237, 236
 127, 128, 129, 238, 237
 128, 129, 130, 239, 238
 129, 130, 131, 240, 239
 130, 131, 132, 241, 240
 131, 132, 133, 242, 241
 132, 133, 134, 243, 242
 133, 134, 135, 244, 243
 134, 135, 136, 245, 244
 135, 136, 137, 246, 245
 136, 137, 138, 247, 246
 137, 138, 139, 248, 247
 138, 139, 140, 249, 248
 139, 140, 141, 250, 249
 140, 141, 142, 251, 250
 141, 142, 143, 252, 251
 142, 143, 144, 253, 252
 143, 144, 145, 254, 253
 144, 145, 146, 255, 254
 145, 146, 147, 256, 255
 146, 147, 148, 257, 256
 147, 148, 149, 258, 257
 148, 149, 150, 259, 258
 149, 150, 151, 260, 259
 150, 151, 152, 261, 260
 151, 152, 153, 262, 261
 152, 153, 154, 263, 262
 153, 154, 155, 264, 263
 154, 155, 156, 265, 264
 155, 156, 157, 266, 265
 156, 157, 158, 267, 266
 157, 158, 159, 268, 267
 158, 159, 160, 269, 268
 159, 160, 161, 270, 269
 160, 161, 162, 271, 270
 161, 162, 163, 272, 271
 162, 163, 164, 273, 272
 163, 164, 165, 274, 273
 164, 165, 166, 275, 274
 165, 166, 167, 276, 275
 166, 167, 168, 277, 276
 167, 168, 169, 278, 277
 168, 169, 170, 279, 278
 169, 170, 171, 280, 279
 170, 171, 172, 281, 280
 171, 172, 173, 282, 281
 172, 173, 174, 283, 282
 173, 174, 175, 284, 283
 174, 175, 176, 285, 284
 175, 176, 177, 286, 285
 176, 177, 178, 287, 286
 177, 178, 179, 288, 287
 178, 179, 180, 289, 288
 179, 180, 181, 290, 289
 180, 181, 182, 291, 290
 181, 182, 183, 292, 291
 182, 183, 184, 293, 292
 183, 184, 185, 294, 293
 184, 185, 186, 295, 294
 185, 186, 187, 296, 295
 186, 187, 188, 297, 296
 187, 188, 189, 298, 297
 188, 189, 190, 299, 298
 189, 190, 191, 300, 299
 190, 191, 192, 301, 300
 191, 192, 193, 302, 301
 192, 193, 194, 303, 302
 193, 194, 195, 304, 303
 194, 195, 196, 305, 304
 195, 196, 197, 306, 305
 196, 197, 198, 307, 306
 197, 198, 199, 308, 307
 198, 199, 200, 309, 308
 199, 200, 201, 310, 309
 200, 201, 202, 311, 310
 201, 202, 203, 312, 311
 202, 203, 204, 313, 312
 203, 204, 205, 314, 313
 204, 205, 206, 315, 314
 205, 206, 207, 316, 315
 206, 207, 208, 317, 316
 207, 208, 209, 318, 317
 208, 209, 210, 319, 318
 209, 210, 211, 320, 319
 210, 211, 212, 321, 320
 211, 212, 213, 322, 321
 212, 213, 214, 323, 322
 213, 214, 215, 324, 323
 214, 215, 216, 325, 324
 215, 216, 217, 326, 325
 216, 217, 218, 327, 326
 217, 219, 220, 329, 328
 218, 220, 221, 330, 329
 219, 221, 222, 331, 330
 220, 222, 223, 332, 331
 221, 223, 224, 333, 332
 222, 224, 225, 334, 333
 223, 225, 226, 335, 334
 224, 226, 227, 336, 335
 225, 227, 228, 337, 336
 226, 228, 229, 338, 337
 227, 229, 230, 339, 338
 228, 230, 231, 340, 339
 229, 231, 232, 341, 340
 230, 232, 233, 342, 341
 231, 233, 234, 343, 342
 232, 234, 235, 344, 343
 233, 235, 236, 345, 344
 234, 236, 237, 346, 345
 235, 237, 238, 347, 346
 236, 238, 239, 348, 347
 237, 239, 240, 349, 348
 238, 240, 241, 350, 349
 239, 241, 242, 351, 350
 240, 242, 243, 352, 351
 241, 243, 244, 353, 352
 242, 244, 245, 354, 353
 243, 245, 246, 355, 354
 244, 246, 247, 356, 355
 245, 247, 248, 357, 356
 246, 248, 249, 358, 357
 247, 249, 250, 359, 358
 248, 250, 251, 360, 359
 249, 251, 252, 361, 360
 250, 252, 253, 362, 361
 251, 253, 254, 363, 362
 252, 254, 255, 364, 363
 253, 255, 256, 365, 364
 254, 256, 257, 366, 365
 255, 257, 258, 367, 366
 256, 258, 259, 368, 367
 257, 259, 260, 369, 368
 258, 260, 261, 370, 369
 259, 261, 262, 371, 370
 260, 262, 263, 372, 371
 261, 263, 264, 373, 372
 262, 264, 265, 374, 373
 263, 265, 266, 375, 374
 264, 266, 267, 376, 375
 265, 267, 268, 377, 376
 266, 268, 269, 378, 377
 267, 269, 270, 379, 378
 268, 270, 271, 380, 379
 269, 271, 272, 381, 380
 270, 272, 273, 382, 381
 271, 273, 274, 383, 382
 272, 274, 275, 384, 383
 273, 275, 276, 385, 384
 274, 276, 277, 386, 385
 275, 277, 278, 387, 386
 276, 278, 279, 388, 387
 277, 279, 280, 389, 388
 278, 280, 281, 390, 389
 279, 281, 282, 391, 390
 280, 282, 283, 392, 391
 281, 283, 284, 393, 392
 282, 284, 285, 394, 393
 283, 285, 286, 395, 394
 284, 286, 287, 396, 395
 285, 287, 288, 397, 396
 286, 288, 289, 398, 397
 287, 289, 290, 399, 398
 288, 290, 291, 400, 399
 289, 291, 292, 401, 400
 290, 292, 293, 402, 401
 291, 293, 294, 403, 402
 292, 294, 295, 404, 403
 293, 295, 296, 405, 404
 294, 296, 297, 406, 405
 295, 297, 298, 407, 406
 296, 298, 299, 408, 407
 297, 299, 300, 409, 408
 298, 300, 301, 410, 409
 299, 301, 302, 411, 410
 300, 302, 303, 412, 411
 301, 303, 304, 413, 412
 302, 304, 305, 414, 413
 303, 305, 306, 415, 414
 304, 306, 307, 416, 415
 305, 307, 308, 417, 416
 306, 308, 309, 418, 417
 307, 309, 310, 419, 418
 308, 310, 311, 420, 419
 309, 311, 312, 421, 420
 310, 312, 313, 422, 421
 311, 313, 314, 423, 422
 312, 314, 315, 424, 423
 313, 315, 316, 425, 424
 314, 316, 317, 426, 425
 315, 317, 318, 427, 426
 316, 318, 319, 428, 427
 317, 319, 320, 429, 428
 318, 320, 321, 430, 429
 319, 321, 322, 431, 430
 320, 322, 323, 432, 431
 321, 323, 324, 433, 432
 322, 324, 325, 434, 433
 323, 325, 326, 435, 434
 324, 326, 327, 436, 435
 325, 328, 329, 438, 437
 326, 329, 330, 439, 438
 327, 330, 331, 440, 439
 328, 331, 332, 441, 440
 329, 332, 333, 442, 441
 330, 333, 334, 443, 442
 331, 334, 335, 444, 443
 332, 335, 336, 445, 444
 333, 336, 337, 446, 445
 334, 337, 338, 447, 446
 335, 338, 339, 448, 447
 336, 339, 340, 449, 448
 337, 340, 341, 450, 449
 338, 341, 342, 451, 450
 339, 342, 343, 452, 451
 340, 343, 344, 453, 452
 341, 344, 345, 454, 453
 342, 345, 346, 455, 454
 343, 346, 347, 456, 455
 344, 347, 348, 457, 456
 345, 348, 349, 458, 457
 346, 349, 350, 459, 458
 347, 350, 351, 460, 459
 348, 351, 352, 461, 460
 349, 352, 353, 462, 461
 350, 353, 354, 463, 462
 351, 354, 355, 464, 463
 352, 355, 356, 465, 464
 353, 356, 357, 466, 465
 354, 357, 358, 467, 466
 355, 358, 359, 468, 467
 356, 359, 360, 469, 468
 357, 360, 361, 470, 469
 358, 361, 362, 471, 470
 359, 362, 363, 472, 471
 360, 363, 364, 473, 472
 361, 364, 365, 474, 473
 362, 365, 366, 475, 474
 363, 366, 367, 476, 475
 364, 367, 368, 477, 476
 365, 368, 369, 478, 477
 366, 369, 370, 479, 478
 367, 370, 371, 480, 479
 368, 371, 372, 481, 480
 369, 372, 373, 482, 481
 370, 373, 374, 483, 482
 371, 374, 375, 484, 483
 372, 375, 376, 485, 484
 373, 376, 377, 486, 485
 374, 377, 378, 487, 486
 375, 378, 379, 488, 487
 376, 379, 380, 489, 488
 377, 380, 381, 490, 489
 378, 381, 382, 491, 490
 379, 382, 383, 492, 491
 380, 383, 384, 493, 492
 381, 384, 385, 494, 493
 382, 385, 386, 495, 494
 383, 386, 387, 496, 495
 384, 387, 388, 497, 496
 385, 388, 389, 498, 497
 386, 389, 390, 499, 498
 387, 390, 391, 500, 499
 388, 391, 392, 501, 500
 389, 392, 393, 502, 501
 390, 393, 394, 503, 502
 391, 394, 395, 504, 503
 392, 395, 396, 505, 504
 393, 396, 397, 506, 505
 394, 397, 398, 507, 506
 395, 398, 399, 508, 507
 396, 399, 400, 509, 508
 397, 400, 401, 510, 509
 398, 401, 402, 511, 510
 399, 402, 403, 512, 511
 400, 403, 404, 513, 512
 401, 404, 405, 514, 513
 402, 405, 406, 515, 514
 403, 406, 407, 516, 515
 404, 407, 408, 517, 516
 405, 408, 409, 518, 517
 406, 409, 410, 519, 518
 407, 410, 411, 520, 519
 408, 411, 412, 521, 520
 409, 412, 413, 522, 521
 410, 413, 414, 523, 522
 411, 414, 415, 524, 523
 412, 415, 416, 525, 524
 413, 416, 417, 526, 525
 414, 417, 418, 527, 526
 415, 418, 419, 528, 527
 416, 419, 420, 529, 528
 417, 420, 421, 530, 529
 418, 421, 422, 531, 530
 419, 422, 423, 532, 531
 420, 423, 424, 533, 532
 421, 424, 425, 534, 533
 422, 425, 426, 535, 534
 423, 426, 427, 536, 535
 424, 427, 428, 537, 536
 425, 428, 429, 538, 537
 426, 429, 430, 539, 538
 427, 430, 431, 540, 539
 428, 431, 432, 541, 540
 429, 432, 433, 542, 541
 430, 433, 434, 543, 542
 431, 434, 435, 544, 543
 432, 435, 436, 545, 544
 433, 437, 438, 547, 546
 434, 438, 439, 548, 547
 435, 439, 440, 549, 548
 436, 440, 441, 550, 549
 437, 441, 442, 551, 550
 438, 442, 443, 552, 551
 439, 443, 444, 553, 552
 440, 444, 445, 554, 553
 441, 445, 446, 555, 554
 442, 446, 447, 556, 555
 443, 447, 448, 557, 556
 444, 448, 449, 558, 557
 445, 449, 450, 559, 558
 446, 450, 451, 560, 559
 447, 451, 452, 561, 560
 448, 452, 453, 562, 561
 449, 453, 454, 563, 562
 450, 454, 455, 564, 563
 451, 455, 456, 565, 564
 452, 456, 457, 566, 565
 453, 457, 458, 567, 566
 454, 458, 459, 568, 567
 455, 459, 460, 569, 568
 456, 460, 461, 570, 569
 457, 461, 462, 571, 570
 458, 462, 463, 572, 571
 459, 463, 464, 573, 572
 460, 464, 465, 574, 573
 461, 465, 466, 575, 574
 462, 466, 467, 576, 575
 463, 467, 468, 577, 576
 464, 468, 469, 578, 577
 465, 469, 470, 579, 578
 466, 470, 471, 580, 579
 467, 471, 472, 581, 580
 468, 472, 473, 582, 581
 469, 473, 474, 583, 582
 470, 474, 475, 584, 583
 471, 475, 476, 585, 584
 472, 476, 477, 586, 585
 473, 477, 478, 587, 586
 474, 478, 479, 588, 587
 475, 479, 480, 589, 588
 476, 480, 481, 590, 589
 477, 481, 482, 591, 590
 478, 482, 483, 592, 591
 479, 483, 484, 593, 592
 480, 484, 485, 594, 593
 481, 485, 486, 595, 594
 482, 486, 487, 596, 595
 483, 487, 488, 597, 596
 484, 488, 489, 598, 597
 485, 489, 490, 599, 598
 486, 490, 491, 600, 599
 487, 491, 492, 601, 600
 488, 492, 493, 602, 601
 489, 493, 494, 603, 602
 490, 494, 495, 604, 603
 491, 495, 496, 605, 604
 492, 496, 497, 606, 605
 493, 497, 498, 607, 606
 494, 498, 499, 608, 607
 495, 499, 500, 609, 608
 496, 500, 501, 610, 609
 497, 501, 502, 611, 610
 498, 502, 503, 612, 611
 499, 503, 504, 613, 612
 500, 504, 505, 614, 613
 501, 505, 506, 615, 614
 502, 506, 507, 616, 615
 503, 507, 508, 617, 616
 504, 508, 509, 618, 617
 505, 509, 510, 619, 618
 506, 510, 511, 620, 619
 507, 511, 512, 621, 620
 508, 512, 513, 622, 621
 509, 513, 514, 623, 622
 510, 514, 515, 624, 623
 511, 515, 516, 625, 624
 512, 516, 517, 626, 625
 513, 517, 518, 627, 626
 514, 518, 519, 628, 627
 515, 519, 520, 629, 628
 516, 520, 521, 630, 629
 517, 521, 522, 631, 630
 518, 522, 523, 632, 631
 519, 523, 524, 633, 632
 520, 524, 525, 634, 633
 521, 525, 526, 635, 634
 522, 526, 527, 636, 635
 523, 527, 528, 637, 636
 524, 528, 529, 638, 637
 525, 529, 530, 639, 638
 526, 530, 531, 640, 639
 527, 531, 532, 641, 640
 528, 532, 533, 642, 641
 529, 533, 534, 643, 642
 530, 534, 535, 644, 643
 531, 535, 536, 645, 644
 532, 536, 537, 646, 645
 533, 537, 538, 647, 646
 534, 538, 539, 648, 647
 535, 539, 540, 649, 648
 536, 540, 541, 650, 649
 537, 541, 542, 651, 650
 538, 542, 543, 652, 651
 539, 543, 544, 653, 652
 540, 544, 545, 654, 653
 541, 546, 547, 656, 655
 542, 547, 548, 657, 656
 543, 548, 549, 658, 657
 544, 549, 550, 659, 658
 545, 550, 551, 660, 659
 546, 551, 552, 661, 660
 547, 552, 553, 662, 661
 548, 553, 554, 663, 662
 549, 554, 555, 664, 663
 550, 555, 556, 665, 664
 551, 556, 557, 666, 665
 552, 557, 558, 667, 666
 553, 558, 559, 668, 667
 554, 559, 560, 669, 668
 555, 560, 561, 670, 669
 556, 561, 562, 671, 670
 557, 562, 563, 672, 671
 558, 563, 564, 673, 672
 559, 564, 565, 674, 673
 560, 565, 566, 675, 674
 561, 566, 567, 676, 675
 562, 567, 568, 677, 676
 563, 568, 569, 678, 677
 564, 569, 570, 679, 678
 565, 570, 571, 680, 679
 566, 571, 572, 681, 680
 567, 572, 573, 682, 681
 568, 573, 574, 683, 682
 569, 574, 575, 684, 683
 570, 575, 576, 685, 684
 571, 576, 577, 686, 685
 572, 577, 578, 687, 686
 573, 578, 579, 688, 687
 574, 579, 580, 689, 688
 575, 580, 581, 690, 689
 576, 581, 582, 691, 690
 577, 582, 583, 692, 691
 578, 583, 584, 693, 692
 579, 584, 585, 694, 693
 580, 585, 586, 695, 694
 581, 586, 587, 696, 695
 582, 587, 588, 697, 696
 583, 588, 589, 698, 697
 584, 589, 590, 699, 698
 585, 590, 591, 700, 699
 586, 591, 592, 701, 700
 587, 592, 593, 702, 701
 588, 593, 594, 703, 702
 589, 594, 595, 704, 703
 590, 595, 596, 705, 704
 591, 596, 597, 706, 705
 592, 597, 598, 707, 706
 593, 598, 599, 708, 707
 594, 599, 600, 709, 708
 595, 600, 601, 710, 709
 596, 601, 602, 711, 710
 597, 602, 603, 712, 711
 598, 603, 604, 713, 712
 599, 604, 605, 714, 713
 600, 605, 606, 715, 714
 601, 606, 607, 716, 715
 602, 607, 608, 717, 716
 603, 608, 609, 718, 717
 604, 609, 610, 719, 718
 605, 610, 611, 720, 719
 606, 611, 612, 721, 720
 607, 612, 613, 722, 721
 608, 613, 614, 723, 722
 609, 614, 615, 724, 723
 610, 615, 616, 725, 724
 611, 616, 617, 726, 725
 612, 617, 618, 727, 726
 613, 618, 619, 728, 727
 614, 619, 620, 729, 728
 615, 620, 621, 730, 729
 616, 621, 622, 731, 730
 617, 622, 623, 732, 731
 618, 623, 624, 733, 732
 619, 624, 625, 734, 733
 620, 625, 626, 735, 734
 621, 626, 627, 736, 735
 622, 627, 628, 737, 736
 623, 628, 629, 738, 737
 624, 629, 630, 739, 738
 625, 630, 631, 740, 739
 626, 631, 632, 741, 740
 627, 632, 633, 742, 741
 628, 633, 634, 743, 742
 629, 634, 635, 744, 743
 630, 635, 636, 745, 744
 631, 636, 637, 746, 745
 632, 637, 638, 747, 746
 633, 638, 639, 748, 747
 634, 639, 640, 749, 748
 635, 640, 641, 750, 749
 636, 641, 642, 751, 750
 637, 642, 643, 752, 751
 638, 643, 644, 753, 752
 639, 644, 645, 754, 753
 640, 645, 646, 755, 754
 641, 646, 647, 756, 755
 642, 647, 648, 757, 756
 643, 648, 649, 758, 757
 644, 649, 650, 759, 758
 645, 650, 651, 760, 759
 646, 651, 652, 761, 760
 647, 652, 653, 762, 761
 648, 653, 654, 763, 762
 649, 655, 656, 765, 764
 650, 656, 657, 766, 765
 651, 657, 658, 767, 766
 652, 658, 659, 768, 767
 653, 659, 660, 769, 768
 654, 660, 661, 770, 769
 655, 661, 662, 771, 770
 656, 662, 663, 772, 771
 657, 663, 664, 773, 772
 658, 664, 665, 774, 773
 659, 665, 666, 775, 774
 660, 666, 667, 776, 775
 661, 667, 668, 777, 776
 662, 668, 669, 778, 777
 663, 669, 670, 779, 778
 664, 670, 671, 780, 779
 665, 671, 672, 781, 780
 666, 672, 673, 782, 781
 667, 673, 674, 783, 782
 668, 674, 675, 784, 783
 669, 675, 676, 785, 784
 670, 676, 677, 786, 785
 671, 677, 678, 787, 786
 672, 678, 679, 788, 787
 673, 679, 680, 789, 788
 674, 680, 681, 790, 789
 675, 681, 682, 791, 790
 676, 682, 683, 792, 791
 677, 683, 684, 793, 792
 678, 684, 685, 794, 793
 679, 685, 686, 795, 794
 680, 686, 687, 796, 795
 681, 687, 688, 797, 796
 682, 688, 689, 798, 797
 683, 689, 690, 799, 798
 684, 690, 691, 800, 799
 685, 691, 692, 801, 800
 686, 692, 693, 802, 801
 687, 693, 694, 803, 802
 688, 694, 695, 804, 803
 689, 695, 696, 805, 804
 690, 696, 697, 806, 805
 691, 697, 698, 807, 806
 692, 698, 699, 808, 807
 693, 699, 700, 809, 808
 694, 700, 701, 810, 809
 695, 701, 702, 811, 810
 696, 702, 703, 812, 811
 697, 703, 704, 813, 812
 698, 704, 705, 814, 813
 699, 705, 706, 815, 814
 700, 706, 707, 816, 815
 701, 707, 708, 817, 816
 702, 708, 709, 818, 817
 703, 709, 710, 819, 818
 704, 710, 711, 820, 819
 705, 711, 712, 821, 820
 706, 712, 713, 822, 821
 707, 713, 714, 823, 822
 708, 714, 715, 824, 823
 709, 715, 716, 825, 824
 710, 716, 717, 826, 825
 711, 717, 718, 827, 826
 712, 718, 719, 828, 827
 713, 719, 720, 829, 828
 714, 720, 721, 830, 829
 715, 721, 722, 831, 830
 716, 722, 723, 832, 831
 717, 723, 724, 833, 832
 718, 724, 725, 834, 833
 719, 725, 726, 835, 834
 720, 726, 727, 836, 835
 721, 727, 728, 837, 836
 722, 728, 729, 838, 837
 723, 729, 730, 839, 838
 724, 730, 731, 840, 839
 725, 731, 732, 841, 840
 726, 732, 733, 842, 841
 727, 733, 734, 843, 842
 728, 734, 735, 844, 843
 729, 735, 736, 845, 844
 730, 736, 737, 846, 845
 731, 737, 738, 847, 846
 732, 738, 739, 848, 847
 733, 739, 740, 849, 848
 734, 740, 741, 850, 849
 735, 741, 742, 851, 850
 736, 742, 743, 852, 851
 737, 743, 744, 853, 852
 738, 744, 745, 854, 853
 739, 745, 746, 855, 854
 740, 746, 747, 856, 855
 741, 747, 748, 857, 856
 742, 748, 749, 858, 857
 743, 749, 750, 859, 858
 744, 750, 751, 860, 859
 745, 751, 752, 861, 860
 746, 752, 753, 862, 861
 747, 753, 754, 863, 862
 748, 754, 755, 864, 863
 749, 755, 756, 865, 864
 750, 756, 757, 866, 865
 751, 757, 758, 867, 866
 752, 758, 759, 868, 867
 753, 759, 760, 869, 868
 754, 760, 761, 870, 869
 755, 761, 762, 871, 870
 756, 762, 763, 872, 871
 757, 764, 765, 874, 873
 758, 765, 766, 875, 874
 759, 766, 767, 876, 875
 760, 767, 768, 877, 876
 761, 768, 769, 878, 877
 762, 769, 770, 879, 878
 763, 770, 771, 880, 879
 764, 771, 772, 881, 880
 765, 772, 773, 882, 881
 766, 773, 774, 883, 882
 767, 774, 775, 884, 883
 768, 775, 776, 885, 884
 769, 776, 777, 886, 885
 770, 777, 778, 887, 886
 771, 778, 779, 888, 887
 772, 779, 780, 889, 888
 773, 780, 781, 890, 889
 774, 781, 782, 891, 890
 775, 782, 783, 892, 891
 776, 783, 784, 893, 892
 777, 784, 785, 894, 893
 778, 785, 786, 895, 894
 779, 786, 787, 896, 895
 780, 787, 788, 897, 896
 781, 788, 789, 898, 897
 782, 789, 790, 899, 898
 783, 790, 791, 900, 899
 784, 791, 792, 901, 900
 785, 792, 793, 902, 901
 786, 793, 794, 903, 902
 787, 794, 795, 904, 903
 788, 795, 796, 905, 904
 789, 796, 797, 906, 905
 790, 797, 798, 907, 906
 791, 798, 799, 908, 907
 792, 799, 800, 909, 908
 793, 800, 801, 910, 909
 794, 801, 802, 911, 910
 795, 802, 803, 912, 911
 796, 803, 804, 913, 912
 797, 804, 805, 914, 913
 798, 805, 806, 915, 914
 799, 806, 807, 916, 915
 800, 807, 808, 917, 916
 801, 808, 809, 918, 917
 802, 809, 810, 919, 918
 803, 810, 811, 920, 919
 804, 811, 812, 921, 920
 805, 812, 813, 922, 921
 806, 813, 814, 923, 922
 807, 814, 815, 924, 923
 808, 815, 816, 925, 924
 809, 816, 817, 926, 925
 810, 817, 818, 927, 926
 811, 818, 819, 928, 927
 812, 819, 820, 929, 928
 813, 820, 821, 930, 929
 814, 821, 822, 931, 930
 815, 822, 823, 932, 931
 816, 823, 824, 933, 932
 817, 824, 825, 934, 933
 818, 825, 826, 935, 934
 819, 826, 827, 936, 935
 820, 827, 828, 937, 936
 821, 828, 829, 938, 937
 822, 829, 830, 939, 938
 823, 830, 831, 940, 939
 824, 831, 832, 941, 940
 825, 832, 833, 942, 941
 826, 833, 834, 943, 942
 827, 834, 835, 944, 943
 828, 835, 836, 945, 944
 829, 836, 837, 946, 945
 830, 837, 838, 947, 946
 831, 838, 839, 948, 947
 832, 839, 840, 949, 948
 833, 840, 841, 950, 949
 834, 841, 842, 951, 950
 835, 842, 843, 952, 951
 836, 843, 844, 953, 952
 837, 844, 845, 954, 953
 838, 845, 846, 955, 954
 839, 846, 847, 956, 955
 840, 847, 848, 957, 956
 841, 848, 849, 958, 957
 842, 849, 850, 959, 958
 843, 850, 851, 960, 959
 844, 851, 852, 961, 960
 845, 852, 853, 962, 961
 846, 853, 854, 963, 962
 847, 854, 855, 964, 963
 848, 855, 856, 965, 964
 849, 856, 857, 966, 965
 850, 857, 858, 967, 966
 851, 858, 859, 968, 967
 852, 859, 860, 969, 968
 853, 860, 861, 970, 969
 854, 861, 862, 971, 970
 855, 862, 863, 972, 971
 856, 863, 864, 973, 972
 857, 864, 865, 974, 973
 858, 865, 866, 975, 974
 859, 866, 867, 976, 975
 860, 867, 868, 977, 976
 861, 868, 869, 978, 977
 862, 869, 870, 979, 978
 863, 870, 871, 980, 979
 864, 871, 872, 981, 980
 865, 873, 874, 983, 982
 866, 874, 875, 984, 983
 867, 875, 876, 985, 984
 868, 876, 877, 986, 985
 869, 877, 878, 987, 986
 870, 878, 879, 988, 987
 871, 879, 880, 989, 988
 872, 880, 881, 990, 989
 873, 881, 882, 991, 990
 874, 882, 883, 992, 991
 875, 883, 884, 993, 992
 876, 884, 885, 994, 993
 877, 885, 886, 995, 994
 878, 886, 887, 996, 995
 879, 887, 888, 997, 996
 880, 888, 889, 998, 997
 881, 889, 890, 999, 998
 882, 890, 891, 1000, 999
 883, 891, 892, 1001, 1000
 884, 892, 893, 1002, 1001
 885, 893, 894, 1003, 1002
 886, 894, 895, 1004, 1003
 887, 895, 896, 1005, 1004
 888, 896, 897, 1006, 1005
 889, 897, 898, 1007, 1006
 890, 898, 899, 1008, 1007
 891, 899, 900, 1009, 1008
 892, 900, 901, 1010, 1009
 893, 901, 902, 1011, 1010
 894, 902, 903, 1012, 1011
 895, 903, 904, 1013, 1012
 896, 904, 905, 1014, 1013
 897, 905, 906, 1015, 1014
 898, 906, 907, 1016, 1015
 899, 907, 908, 1017, 1016
 900, 908, 909, 1018, 1017
 901, 909, 910, 1019, 1018
 902, 910, 911, 1020, 1019
 903, 911, 912, 1021, 1020
 904, 912, 913, 1022, 1021
 905, 913, 914, 1023, 1022
 906, 914, 915, 1024, 1023
 907, 915, 916, 1025, 1024
 908, 916, 917, 1026, 1025
 909, 917, 918, 1027, 1026
 910, 918, 919, 1028, 1027
 911, 919, 920, 1029, 1028
 912, 920, 921, 1030, 1029
 913, 921, 922, 1031, 1030
 914, 922, 923, 1032, 1031
 915, 923, 924, 1033, 1032
 916, 924, 925, 1034, 1033
 917, 925, 926, 1035, 1034
 918, 926, 927, 1036, 1035
 919, 927, 928, 1037, 1036
 920, 928, 929, 1038, 1037
 921, 929, 930, 1039, 1038
 922, 930, 931, 1040, 1039
 923, 931, 932, 1041, 1040
 924, 932, 933, 1042, 1041
 925, 933, 934, 1043, 1042
 926, 934, 935, 1044, 1043
 927, 935, 936, 1045, 1044
 928, 936, 937, 1046, 1045
 929, 937, 938, 1047, 1046
 930, 938, 939, 1048, 1047
 931, 939, 940, 1049, 1048
 932, 940, 941, 1050, 1049
 933, 941, 942, 1051, 1050
 934, 942, 943, 1052, 1051
 935, 943, 944, 1053, 1052
 936, 944, 945, 1054, 1053
 937, 945, 946, 1055, 1054
 938, 946, 947, 1056, 1055
 939, 947, 948, 1057, 1056
 940, 948, 949, 1058, 1057
 941, 949, 950, 1059, 1058
 942, 950, 951, 1060, 1059
 943, 951, 952, 1061, 1060
 944, 952, 953, 1062, 1061
 945, 953, 954, 1063, 1062
 946, 954, 955, 1064, 1063
 947, 955, 956, 1065, 1064
 948, 956, 957, 1066, 1065
 949, 957, 958, 1067, 1066
 950, 958, 959, 1068, 1067
 951, 959, 960, 1069, 1068
 952, 960, 961, 1070, 1069
 953, 961, 962, 1071, 1070
 954, 962, 963, 1072, 1071
 955, 963, 964, 1073, 1072
 956, 964, 965, 1074, 1073
 957, 965, 966, 1075, 1074
 958, 966, 967, 1076, 1075
 959, 967, 968, 1077, 1076
 960, 968, 969, 1078, 1077
 961, 969, 970, 1079, 1078
 962, 970, 971, 1080, 1079
 963, 971, 972, 1081, 1080
 964, 972, 973, 1082, 1081
 965, 973, 974, 1083, 1082
 966, 974, 975, 1084, 1083
 967, 975, 976, 1085, 1084
 968, 976, 977, 1086, 1085
 969, 977, 978, 1087, 1086
 970, 978, 979, 1088, 1087
 971, 979, 980, 1089, 1088
 972, 980, 981, 1090, 1089
 973, 982, 983, 1092, 1091
 974, 983, 984, 1093, 1092
 975, 984, 985, 1094, 1093
 976, 985, 986, 1095, 1094
 977, 986, 987, 1096, 1095
 978, 987, 988, 1097, 1096
 979, 988, 989, 1098, 1097
 980, 989, 990, 1099, 1098
 981, 990, 991, 1100, 1099
 982, 991, 992, 1101, 1100
 983, 992, 993, 1102, 1101
 984, 993, 994, 1103, 1102
 985, 994, 995, 1104, 1103
 986, 995, 996, 1105, 1104
 987, 996, 997, 1106, 1105
 988, 997, 998, 1107, 1106
 989, 998, 999, 1108, 1107
 990, 999, 1000, 1109, 1108
 991, 1000, 1001, 1110, 1109
 992, 1001, 1002, 1111, 1110
 993, 1002, 1003, 1112, 1111
 994, 1003, 1004, 1113, 1112
 995, 1004, 1005, 1114, 1113
 996, 1005, 1006, 1115, 1114
 997, 1006, 1007, 1116, 1115
 998, 1007, 1008, 1117, 1116
 999, 1008, 1009, 1118, 1117
 1000, 1009, 1010, 1119, 1118
 1001, 1010, 1011, 1120, 1119
 1002, 1011, 1012, 1121, 1120
 1003, 1012, 1013, 1122, 1121
 1004, 1013, 1014, 1123, 1122
 1005, 1014, 1015, 1124, 1123
 1006, 1015, 1016, 1125, 1124
 1007, 1016, 1017, 1126, 1125
 1008, 1017, 1018, 1127, 1126
 1009, 1018, 1019, 1128, 1127
 1010, 1019, 1020, 1129, 1128
 1011, 1020, 1021, 1130, 1129
 1012, 1021, 1022, 1131, 1130
 1013, 1022, 1023, 1132, 1131
 1014, 1023, 1024, 1133, 1132
 1015, 1024, 1025, 1134, 1133
 1016, 1025, 1026, 1135, 1134
 1017, 1026, 1027, 1136, 1135
 1018, 1027, 1028, 1137, 1136
 1019, 1028, 1029, 1138, 1137
 1020, 1029, 1030, 1139, 1138
 1021, 1030, 1031, 1140, 1139
 1022, 1031, 1032, 1141, 1140
 1023, 1032, 1033, 1142, 1141
 1024, 1033, 1034, 1143, 1142
 1025, 1034, 1035, 1144, 1143
 1026, 1035, 1036, 1145, 1144
 1027, 1036, 1037, 1146, 1145
 1028, 1037, 1038, 1147, 1146
 1029, 1038, 1039, 1148, 1147
 1030, 1039, 1040, 1149, 1148
 1031, 1040, 1041, 1150, 1149
 1032, 1041, 1042, 1151, 1150
 1033, 1042, 1043, 1152, 1151
 1034, 1043, 1044, 1153, 1152
 1035, 1044, 1045, 1154, 1153
 1036, 1045, 1046, 1155, 1154
 1037, 1046, 1047, 1156, 1155
 1038, 1047, 1048, 1157, 1156
 1039, 1048, 1049, 1158, 1157
 1040, 1049, 1050, 1159, 1158
 1041, 1050, 1051, 1160, 1159
 1042, 1051, 1052, 1161, 1160
 1043, 1052, 1053, 1162, 1161
 1044, 1053, 1054, 1163, 1162
 1045, 1054, 1055, 1164, 1163
 1046, 1055, 1056, 1165, 1164
 1047, 1056, 1057, 1166, 1165
 1048, 1057, 1058, 1167, 1166
 1049, 1058, 1059, 1168, 1167
 1050, 1059, 1060, 1169, 1168
 1051, 1060, 1061, 1170, 1169
 1052, 1061, 1062, 1171, 1170
 1053, 1062, 1063, 1172, 1171
 1054, 1063, 1064, 1173, 1172
 1055, 1064, 1065, 1174, 1173
 1056, 1065, 1066, 1175, 1174
 1057, 1066, 1067, 1176, 1175
 1058, 1067, 1068, 1177, 1176
 1059, 1068, 1069, 1178, 1177
 1060, 1069, 1070, 1179, 1178
 1061, 1070, 1071, 1180, 1179
 1062, 1071, 1072, 1181, 1180
 1063, 1072, 1073, 1182, 1181
 1064, 1073, 1074, 1183, 1182
 1065, 1074, 1075, 1184, 1183
 1066, 1075, 1076, 1185, 1184
 1067, 1076, 1077, 1186, 1185
 1068, 1077, 1078, 1187, 1186
 1069, 1078, 1079, 1188, 1187
 1070, 1079, 1080, 1189, 1188
 1071, 1080, 1081, 1190, 1189
 1072, 1081, 1082, 1191, 1190
 1073, 1082, 1083, 1192, 1191
 1074, 1083, 1084, 1193, 1192
 1075, 1084, 1085, 1194, 1193
 1076, 1085, 1086, 1195, 1194
 1077, 1086, 1087, 1196, 1195
 1078, 1087, 1088, 1197, 1196
 1079, 1088, 1089, 1198, 1197
 1080, 1089, 1090, 1199, 1198
 1081, 1091, 1092, 1201, 1200
 1082, 1092, 1093, 1202, 1201
 1083, 1093, 1094, 1203, 1202
 1084, 1094, 1095, 1204, 1203
 1085, 1095, 1096, 1205, 1204
 1086, 1096, 1097, 1206, 1205
 1087, 1097, 1098, 1207, 1206
 1088, 1098, 1099, 1208, 1207
 1089, 1099, 1100, 1209, 1208
 1090, 1100, 1101, 1210, 1209
 1091, 1101, 1102, 1211, 1210
 1092, 1102, 1103, 1212, 1211
 1093, 1103, 1104, 1213, 1212
 1094, 1104, 1105, 1214, 1213
 1095, 1105, 1106, 1215, 1214
 1096, 1106, 1107, 1216, 1215
 1097, 1107, 1108, 1217, 1216
 1098, 1108, 1109, 1218, 1217
 1099, 1109, 1110, 1219, 1218
 1100, 1110, 1111, 1220, 1219
 1101, 1111, 1112, 1221, 1220
 1102, 1112, 1113, 1222, 1221
 1103, 1113, 1114, 1223, 1222
 1104, 1114, 1115, 1224, 1223
 1105, 1115, 1116, 1225, 1224
 1106, 1116, 1117, 1226, 1225
 1107, 1117, 1118, 1227, 1226
 1108, 1118, 1119, 1228, 1227
 1109, 1119, 1120, 1229, 1228
 1110, 1120, 1121, 1230, 1229
 1111, 1121, 1122, 1231, 1230
 1112, 1122, 1123, 1232, 1231
 1113, 1123, 1124, 1233, 1232
 1114, 1124, 1125, 1234, 1233
 1115, 1125, 1126, 1235, 1234
 1116, 1126, 1127, 1236, 1235
 1117, 1127, 1128, 1237, 1236
 1118, 1128, 1129, 1238, 1237
 1119, 1129, 1130, 1239, 1238
 1120, 1130, 1131, 1240, 1239
 1121, 1131, 1132, 1241, 1240
 1122, 1132, 1133, 1242, 1241
 1123, 1133, 1134, 1243, 1242
 1124, 1134, 1135, 1244, 1243
 1125, 1135, 1136, 1245, 1244
 1126, 1136, 1137, 1246, 1245
 1127, 1137, 1138, 1247, 1246
 1128, 1138, 1139, 1248, 1247
 1129, 1139, 1140, 1249, 1248
 1130, 1140, 1141, 1250, 1249
 1131, 1141, 1142, 1251, 1250
 1132, 1142, 1143, 1252, 1251
 1133, 1143, 1144, 1253, 1252
 1134, 1144, 1145, 1254, 1253
 1135, 1145, 1146, 1255, 1254
 1136, 1146, 1147, 1256, 1255
 1137, 1147, 1148, 1257, 1256
 1138, 1148, 1149, 1258, 1257
 1139, 1149, 1150, 1259, 1258
 1140, 1150, 1151, 1260, 1259
 1141, 1151, 1152, 1261, 1260
 1142, 1152, 1153, 1262, 1261
 1143, 1153, 1154, 1263, 1262
 1144, 1154, 1155, 1264, 1263
 1145, 1155, 1156, 1265, 1264
 1146, 1156, 1157, 1266, 1265
 1147, 1157, 1158, 1267, 1266
 1148, 1158, 1159, 1268, 1267
 1149, 1159, 1160, 1269, 1268
 1150, 1160, 1161, 1270, 1269
 1151, 1161, 1162, 1271, 1270
 1152, 1162, 1163, 1272, 1271
 1153, 1163, 1164, 1273, 1272
 1154, 1164, 1165, 1274, 1273
 1155, 1165, 1166, 1275, 1274
 1156, 1166, 1167, 1276, 1275
 1157, 1167, 1168, 1277, 1276
 1158, 1168, 1169, 1278, 1277
 1159, 1169, 1170, 1279, 1278
 1160, 1170, 1171, 1280, 1279
 1161, 1171, 1172, 1281, 1280
 1162, 1172, 1173, 1282, 1281
 1163, 1173, 1174, 1283, 1282
 1164, 1174, 1175, 1284, 1283
 1165, 1175, 1176, 1285, 1284
 1166, 1176, 1177, 1286, 1285
 1167, 1177, 1178, 1287, 1286
 1168, 1178, 1179, 1288, 1287
 1169, 1179, 1180, 1289, 1288
 1170, 1180, 1181, 1290, 1289
 1171, 1181, 1182, 1291, 1290
 1172, 1182, 1183, 1292, 1291
 1173, 1183, 1184, 1293, 1292
 1174, 1184, 1185, 1294, 1293
 1175, 1185, 1186, 1295, 1294
 1176, 1186, 1187, 1296, 1295
 1177, 1187, 1188, 1297, 1296
 1178, 1188, 1189, 1298, 1297
 1179, 1189, 1190, 1299, 1298
 1180, 1190, 1191, 1300, 1299
 1181, 1191, 1192, 1301, 1300
 1182, 1192, 1193, 1302, 1301
 1183, 1193, 1194, 1303, 1302
 1184, 1194, 1195, 1304, 1303
 1185, 1195, 1196, 1305, 1304
 1186, 1196, 1197, 1306, 1305
 1187, 1197, 1198, 1307, 1306
 1188, 1198, 1199, 1308, 1307
 1189, 1200, 1201, 1310, 1309
 1190, 1201, 1202, 1311, 1310
 1191, 1202, 1203, 1312, 1311
 1192, 1203, 1204, 1313, 1312
 1193, 1204, 1205, 1314, 1313
 1194, 1205, 1206, 1315, 1314
 1195, 1206, 1207, 1316, 1315
 1196, 1207, 1208, 1317, 1316
 1197, 1208, 1209, 1318, 1317
 1198, 1209, 1210, 1319, 1318
 1199, 1210, 1211, 1320, 1319
 1200, 1211, 1212, 1321, 1320
 1201, 1212, 1213, 1322, 1321
 1202, 1213, 1214, 1323, 1322
 1203, 1214, 1215, 1324, 1323
 1204, 1215, 1216, 1325, 1324
 1205, 1216, 1217, 1326, 1325
 1206, 1217, 1218, 1327, 1326
 1207, 1218, 1219, 1328, 1327
 1208, 1219, 1220, 1329, 1328
 1209, 1220, 1221, 1330, 1329
 1210, 1221, 1222, 1331, 1330
 1211, 1222, 1223, 1332, 1331
 1212, 1223, 1224, 1333, 1332
 1213, 1224, 1225, 1334, 1333
 1214, 1225, 1226, 1335, 1334
 1215, 1226, 1227, 1336, 1335
 1216, 1227, 1228, 1337, 1336
 1217, 1228, 1229, 1338, 1337
 1218, 1229, 1230, 1339, 1338
 1219, 1230, 1231, 1340, 1339
 1220, 1231, 1232, 1341, 1340
 1221, 1232, 1233, 1342, 1341
 1222, 1233, 1234, 1343, 1342
 1223, 1234, 1235, 1344, 1343
 1224, 1235, 1236, 1345, 1344
 1225, 1236, 1237, 1346, 1345
 1226, 1237, 1238, 1347, 1346
 1227, 1238, 1239, 1348, 1347
 1228, 1239, 1240, 1349, 1348
 1229, 1240, 1241, 1350, 1349
 1230, 1241, 1242, 1351, 1350
 1231, 1242, 1243, 1352, 1351
 1232, 1243, 1244, 1353, 1352
 1233, 1244, 1245, 1354, 1353
 1234, 1245, 1246, 1355, 1354
 1235, 1246, 1247, 1356, 1355
 1236, 1247, 1248, 1357, 1356
 1237, 1248, 1249, 1358, 1357
 1238, 1249, 1250, 1359, 1358
 1239, 1250, 1251, 1360, 1359
 1240, 1251, 1252, 1361, 1360
 1241, 1252, 1253, 1362, 1361
 1242, 1253, 1254, 1363, 1362
 1243, 1254, 1255, 1364, 1363
 1244, 1255, 1256, 1365, 1364
 1245, 1256, 1257, 1366, 1365
 1246, 1257, 1258, 1367, 1366
 1247, 1258, 1259, 1368, 1367
 1248, 1259, 1260, 1369, 1368
 1249, 1260, 1261, 1370, 1369
 1250, 1261, 1262, 1371, 1370
 1251, 1262, 1263, 1372, 1371
 1252, 1263, 1264, 1373, 1372
 1253, 1264, 1265, 1374, 1373
 1254, 1265, 1266, 1375, 1374
 1255, 1266, 1267, 1376, 1375
 1256, 1267, 1268, 1377, 1376
 1257, 1268, 1269, 1378, 1377
 1258, 1269, 1270, 1379, 1378
 1259, 1270, 1271, 1380, 1379
 1260, 1271, 1272, 1381, 1380
 1261, 1272, 1273, 1382, 1381
 1262, 1273, 1274, 1383, 1382
 1263, 1274, 1275, 1384, 1383
 1264, 1275, 1276, 1385, 1384
 1265, 1276, 1277, 1386, 1385
 1266, 1277, 1278, 1387, 1386
 1267, 1278, 1279, 1388, 1387
 1268, 1279, 1280, 1389, 1388
 1269, 1280, 1281, 1390, 1389
 1270, 1281, 1282, 1391, 1390
 1271, 1282, 1283, 1392, 1391
 1272, 1283, 1284, 1393, 1392
 1273, 1284, 1285, 1394, 1393
 1274, 1285, 1286, 1395, 1394
 1275, 1286, 1287, 1396, 1395
 1276, 1287, 1288, 1397, 1396
 1277, 1288, 1289, 1398, 1397
 1278, 1289, 1290, 1399, 1398
 1279, 1290, 1291, 1400, 1399
 1280, 1291, 1292, 1401, 1400
 1281, 1292, 1293, 1402, 1401
 1282, 1293, 1294, 1403, 1402
 1283, 1294, 1295, 1404, 1403
 1284, 1295, 1296, 1405, 1404
 1285, 1296, 1297, 1406, 1405
 1286, 1297, 1298, 1407, 1406
 1287, 1298, 1299, 1408, 1407
 1288, 1299, 1300, 1409, 1408
 1289, 1300, 1301, 1410, 1409
 1290, 1301, 1302, 1411, 1410
 1291, 1302, 1303, 1412, 1411
 1292, 1303, 1304, 1413, 1412
 1293, 1304, 1305, 1414, 1413
 1294, 1305, 1306, 1415, 1414
 1295, 1306, 1307, 1416, 1415
 1296, 1307, 1308, 1417, 1416
 1297, 1309, 1310, 1419, 1418
 1298, 1310, 1311, 1420, 1419
 1299, 1311, 1312, 1421, 1420
 1300, 1312, 1313, 1422, 1421
 1301, 1313, 1314, 1423, 1422
 1302, 1314, 1315, 1424, 1423
 1303, 1315, 1316, 1425, 1424
 1304, 1316, 1317, 1426, 1425
 1305, 1317, 1318, 1427, 1426
 1306, 1318, 1319, 1428, 1427
 1307, 1319, 1320, 1429, 1428
 1308, 1320, 1321, 1430, 1429
 1309, 1321, 1322, 1431, 1430
 1310, 1322, 1323, 1432, 1431
 1311, 1323, 1324, 1433, 1432
 1312, 1324, 1325, 1434, 1433
 1313, 1325, 1326, 1435, 1434
 1314, 1326, 1327, 1436, 1435
 1315, 1327, 1328, 1437, 1436
 1316, 1328, 1329, 1438, 1437
 1317, 1329, 1330, 1439, 1438
 1318, 1330, 1331, 1440, 1439
 1319, 1331, 1332, 1441, 1440
 1320, 1332, 1333, 1442, 1441
 1321, 1333, 1334, 1443, 1442
 1322, 1334, 1335, 1444, 1443
 1323, 1335, 1336, 1445, 1444
 1324, 1336, 1337, 1446, 1445
 1325, 1337, 1338, 1447, 1446
 1326, 1338, 1339, 1448, 1447
 1327, 1339, 1340, 1449, 1448
 1328, 1340, 1341, 1450, 1449
 1329, 1341, 1342, 1451, 1450
 1330, 1342, 1343, 1452, 1451
 1331, 1343, 1344, 1453, 1452
 1332, 1344, 1345, 1454, 1453
 1333, 1345, 1346, 1455, 1454
 1334, 1346, 1347, 1456, 1455
 1335, 1347, 1348, 1457, 1456
 1336, 1348, 1349, 1458, 1457
 1337, 1349, 1350, 1459, 1458
 1338, 1350, 1351, 1460, 1459
 1339, 1351, 1352, 1461, 1460
 1340, 1352, 1353, 1462, 1461
 1341, 1353, 1354, 1463, 1462
 1342, 1354, 1355, 1464, 1463
 1343, 1355, 1356, 1465, 1464
 1344, 1356, 1357, 1466, 1465
 1345, 1357, 1358, 1467, 1466
 1346, 1358, 1359, 1468, 1467
 1347, 1359, 1360, 1469, 1468
 1348, 1360, 1361, 1470, 1469
 1349, 1361, 1362, 1471, 1470
 1350, 1362, 1363, 1472, 1471
 1351, 1363, 1364, 1473, 1472
 1352, 1364, 1365, 1474, 1473
 1353, 1365, 1366, 1475, 1474
 1354, 1366, 1367, 1476, 1475
 1355, 1367, 1368, 1477, 1476
 1356, 1368, 1369, 1478, 1477
 1357, 1369, 1370, 1479, 1478
 1358, 1370, 1371, 1480, 1479
 1359, 1371, 1372, 1481, 1480
 1360, 1372, 1373, 1482, 1481
 1361, 1373, 1374, 1483, 1482
 1362, 1374, 1375, 1484, 1483
 1363, 1375, 1376, 1485, 1484
 1364, 1376, 1377, 1486, 1485
 1365, 1377, 1378, 1487, 1486
 1366, 1378, 1379, 1488, 1487
 1367, 1379, 1380, 1489, 1488
 1368, 1380, 1381, 1490, 1489
 1369, 1381, 1382, 1491, 1490
 1370, 1382, 1383, 1492, 1491
 1371, 1383, 1384, 1493, 1492
 1372, 1384, 1385, 1494, 1493
 1373, 1385, 1386, 1495, 1494
 1374, 1386, 1387, 1496, 1495
 1375, 1387, 1388, 1497, 1496
 1376, 1388, 1389, 1498, 1497
 1377, 1389, 1390, 1499, 1498
 1378, 1390, 1391, 1500, 1499
 1379, 1391, 1392, 1501, 1500
 1380, 1392, 1393, 1502, 1501
 1381, 1393, 1394, 1503, 1502
 1382, 1394, 1395, 1504, 1503
 1383, 1395, 1396, 1505, 1504
 1384, 1396, 1397, 1506, 1505
 1385, 1397, 1398, 1507, 1506
 1386, 1398, 1399, 1508, 1507
 1387, 1399, 1400, 1509, 1508
 1388, 1400, 1401, 1510, 1509
 1389, 1401, 1402, 1511, 1510
 1390, 1402, 1403, 1512, 1511
 1391, 1403, 1404, 1513, 1512
 1392, 1404, 1405, 1514, 1513
 1393, 1405, 1406, 1515, 1514
 1394, 1406, 1407, 1516, 1515
 1395, 1407, 1408, 1517, 1516
 1396, 1408, 1409, 1518, 1517
 1397, 1409, 1410, 1519, 1518
 1398, 1410, 1411, 1520, 1519
 1399, 1411, 1412, 1521, 1520
 1400, 1412, 1413, 1522, 1521
 1401, 1413, 1414, 1523, 1522
 1402, 1414, 1415, 1524, 1523
 1403, 1415, 1416, 1525, 1524
 1404, 1416, 1417, 1526, 1525
 1405, 1418, 1419, 1528, 1527
 1406, 1419, 1420, 1529, 1528
 1407, 1420, 1421, 1530, 1529
 1408, 1421, 1422, 1531, 1530
 1409, 1422, 1423, 1532, 1531
 1410, 1423, 1424, 1533, 1532
 1411, 1424, 1425, 1534, 1533
 1412, 1425, 1426, 1535, 1534
 1413, 1426, 1427, 1536, 1535
 1414, 1427, 1428, 1537, 1536
 1415, 1428, 1429, 1538, 1537
 1416, 1429, 1430, 1539, 1538
 1417, 1430, 1431, 1540, 1539
 1418, 1431, 1432, 1541, 1540
 1419, 1432, 1433, 1542, 1541
 1420, 1433, 1434, 1543, 1542
 1421, 1434, 1435, 1544, 1543
 1422, 1435, 1436, 1545, 1544
 1423, 1436, 1437, 1546, 1545
 1424, 1437, 1438, 1547, 1546
 1425, 1438, 1439, 1548, 1547
 1426, 1439, 1440, 1549, 1548
 1427, 1440, 1441, 1550, 1549
 1428, 1441, 1442, 1551, 1550
 1429, 1442, 1443, 1552, 1551
 1430, 1443, 1444, 1553, 1552
 1431, 1444, 1445, 1554, 1553
 1432, 1445, 1446, 1555, 1554
 1433, 1446, 1447, 1556, 1555
 1434, 1447, 1448, 1557, 1556
 1435, 1448, 1449, 1558, 1557
 1436, 1449, 1450, 1559, 1558
 1437, 1450, 1451, 1560, 1559
 1438, 1451, 1452, 1561, 1560
 1439, 1452, 1453, 1562, 1561
 1440, 1453, 1454, 1563, 1562
 1441, 1454, 1455, 1564, 1563
 1442, 1455, 1456, 1565, 1564
 1443, 1456, 1457, 1566, 1565
 1444, 1457, 1458, 1567, 1566
 1445, 1458, 1459, 1568, 1567
 1446, 1459, 1460, 1569, 1568
 1447, 1460, 1461, 1570, 1569
 1448, 1461, 1462, 1571, 1570
 1449, 1462, 1463, 1572, 1571
 1450, 1463, 1464, 1573, 1572
 1451, 1464, 1465, 1574, 1573
 1452, 1465, 1466, 1575, 1574
 1453, 1466, 1467, 1576, 1575
 1454, 1467, 1468, 1577, 1576
 1455, 1468, 1469, 1578, 1577
 1456, 1469, 1470, 1579, 1578
 1457, 1470, 1471, 1580, 1579
 1458, 1471, 1472, 1581, 1580
 1459, 1472, 1473, 1582, 1581
 1460, 1473, 1474, 1583, 1582
 1461, 1474, 1475, 1584, 1583
 1462, 1475, 1476, 1585, 1584
 1463, 1476, 1477, 1586, 1585
 1464, 1477, 1478, 1587, 1586
 1465, 1478, 1479, 1588, 1587
 1466, 1479, 1480, 1589, 1588
 1467, 1480, 1481, 1590, 1589
 1468, 1481, 1482, 1591, 1590
 1469, 1482, 1483, 1592, 1591
 1470, 1483, 1484, 1593, 1592
 1471, 1484, 1485, 1594, 1593
 1472, 1485, 1486, 1595, 1594
 1473, 1486, 1487, 1596, 1595
 1474, 1487, 1488, 1597, 1596
 1475, 1488, 1489, 1598, 1597
 1476, 1489, 1490, 1599, 1598
 1477, 1490, 1491, 1600, 1599
 1478, 1491, 1492, 1601, 1600
 1479, 1492, 1493, 1602, 1601
 1480, 1493, 1494, 1603, 1602
 1481, 1494, 1495, 1604, 1603
 1482, 1495, 1496, 1605, 1604
 1483, 1496, 1497, 1606, 1605
 1484, 1497, 1498, 1607, 1606
 1485, 1498, 1499, 1608, 1607
 1486, 1499, 1500, 1609, 1608
 1487, 1500, 1501, 1610, 1609
 1488, 1501, 1502, 1611, 1610
 1489, 1502, 1503, 1612, 1611
 1490, 1503, 1504, 1613, 1612
 1491, 1504, 1505, 1614, 1613
 1492, 1505, 1506, 1615, 1614
 1493, 1506, 1507, 1616, 1615
 1494, 1507, 1508, 1617, 1616
 1495, 1508, 1509, 1618, 1617
 1496, 1509, 1510, 1619, 1618
 1497, 1510, 1511, 1620, 1619
 1498, 1511, 1512, 1621, 1620
 1499, 1512, 1513, 1622, 1621
 1500, 1513, 1514, 1623, 1622
 1501, 1514, 1515, 1624, 1623
 1502, 1515, 1516, 1625, 1624
 1503, 1516, 1517, 1626, 1625
 1504, 1517, 1518, 1627, 1626
 1505, 1518, 1519, 1628, 1627
 1506, 1519, 1520, 1629, 1628
 1507, 1520, 1521, 1630, 1629
 1508, 1521, 1522, 1631, 1630
 1509, 1522, 1523, 1632, 1631
 1510, 1523, 1524, 1633, 1632
 1511, 1524, 1525, 1634, 1633
 1512, 1525, 1526, 1635, 1634
 1513, 1527, 1528, 1637, 1636
 1514, 1528, 1529, 1638, 1637
 1515, 1529, 1530, 1639, 1638
 1516, 1530, 1531, 1640, 1639
 1517, 1531, 1532, 1641, 1640
 1518, 1532, 1533, 1642, 1641
 1519, 1533, 1534, 1643, 1642
 1520, 1534, 1535, 1644, 1643
 1521, 1535, 1536, 1645, 1644
 1522, 1536, 1537, 1646, 1645
 1523, 1537, 1538, 1647, 1646
 1524, 1538, 1539, 1648, 1647
 1525, 1539, 1540, 1649, 1648
 1526, 1540, 1541, 1650, 1649
 1527, 1541, 1542, 1651, 1650
 1528, 1542, 1543, 1652, 1651
 1529, 1543, 1544, 1653, 1652
 1530, 1544, 1545, 1654, 1653
 1531, 1545, 1546, 1655, 1654
 1532, 1546, 1547, 1656, 1655
 1533, 1547, 1548, 1657, 1656
 1534, 1548, 1549, 1658, 1657
 1535, 1549, 1550, 1659, 1658
 1536, 1550, 1551, 1660, 1659
 1537, 1551, 1552, 1661, 1660
 1538, 1552, 1553, 1662, 1661
 1539, 1553, 1554, 1663, 1662
 1540, 1554, 1555, 1664, 1663
 1541, 1555, 1556, 1665, 1664
 1542, 1556, 1557, 1666, 1665
 1543, 1557, 1558, 1667, 1666
 1544, 1558, 1559, 1668, 1667
 1545, 1559, 1560, 1669, 1668
 1546, 1560, 1561, 1670, 1669
 1547, 1561, 1562, 1671, 1670
 1548, 1562, 1563, 1672, 1671
 1549, 1563, 1564, 1673, 1672
 1550, 1564, 1565, 1674, 1673
 1551, 1565, 1566, 1675, 1674
 1552, 1566, 1567, 1676, 1675
 1553, 1567, 1568, 1677, 1676
 1554, 1568, 1569, 1678, 1677
 1555, 1569, 1570, 1679, 1678
 1556, 1570, 1571, 1680, 1679
 1557, 1571, 1572, 1681, 1680
 1558, 1572, 1573, 1682, 1681
 1559, 1573, 1574, 1683, 1682
 1560, 1574, 1575, 1684, 1683
 1561, 1575, 1576, 1685, 1684
 1562, 1576, 1577, 1686, 1685
 1563, 1577, 1578, 1687, 1686
 1564, 1578, 1579, 1688, 1687
 1565, 1579, 1580, 1689, 1688
 1566, 1580, 1581, 1690, 1689
 1567, 1581, 1582, 1691, 1690
 1568, 1582, 1583, 1692, 1691
 1569, 1583, 1584, 1693, 1692
 1570, 1584, 1585, 1694, 1693
 1571, 1585, 1586, 1695, 1694
 1572, 1586, 1587, 1696, 1695
 1573, 1587, 1588, 1697, 1696
 1574, 1588, 1589, 1698, 1697
 1575, 1589, 1590, 1699, 1698
 1576, 1590, 1591, 1700, 1699
 1577, 1591, 1592, 1701, 1700
 1578, 1592, 1593, 1702, 1701
 1579, 1593, 1594, 1703, 1702
 1580, 1594, 1595, 1704, 1703
 1581, 1595, 1596, 1705, 1704
 1582, 1596, 1597, 1706, 1705
 1583, 1597, 1598, 1707, 1706
 1584, 1598, 1599, 1708, 1707
 1585, 1599, 1600, 1709, 1708
 1586, 1600, 1601, 1710, 1709
 1587, 1601, 1602, 1711, 1710
 1588, 1602, 1603, 1712, 1711
 1589, 1603, 1604, 1713, 1712
 1590, 1604, 1605, 1714, 1713
 1591, 1605, 1606, 1715, 1714
 1592, 1606, 1607, 1716, 1715
 1593, 1607, 1608, 1717, 1716
 1594, 1608, 1609, 1718, 1717
 1595, 1609, 1610, 1719, 1718
 1596, 1610, 1611, 1720, 1719
 1597, 1611, 1612, 1721, 1720
 1598, 1612, 1613, 1722, 1721
 1599, 1613, 1614, 1723, 1722
 1600, 1614, 1615, 1724, 1723
 1601, 1615, 1616, 1725, 1724
 1602, 1616, 1617, 1726, 1725
 1603, 1617, 1618, 1727, 1726
 1604, 1618, 1619, 1728, 1727
 1605, 1619, 1620, 1729, 1728
 1606, 1620, 1621, 1730, 1729
 1607, 1621, 1622, 1731, 1730
 1608, 1622, 1623, 1732, 1731
 1609, 1623, 1624, 1733, 1732
 1610, 1624, 1625, 1734, 1733
 1611, 1625, 1626, 1735, 1734
 1612, 1626, 1627, 1736, 1735
 1613, 1627, 1628, 1737, 1736
 1614, 1628, 1629, 1738, 1737
 1615, 1629, 1630, 1739, 1738
 1616, 1630, 1631, 1740, 1739
 1617, 1631, 1632, 1741, 1740
 1618, 1632, 1633, 1742, 1741
 1619, 1633, 1634, 1743, 1742
 1620, 1634, 1635, 1744, 1743
 1621, 1636, 1637, 1746, 1745
 1622, 1637, 1638, 1747, 1746
 1623, 1638, 1639, 1748, 1747
 1624, 1639, 1640, 1749, 1748
 1625, 1640, 1641, 1750, 1749
 1626, 1641, 1642, 1751, 1750
 1627, 1642, 1643, 1752, 1751
 1628, 1643, 1644, 1753, 1752
 1629, 1644, 1645, 1754, 1753
 1630, 1645, 1646, 1755, 1754
 1631, 1646, 1647, 1756, 1755
 1632, 1647, 1648, 1757, 1756
 1633, 1648, 1649, 1758, 1757
 1634, 1649, 1650, 1759, 1758
 1635, 1650, 1651, 1760, 1759
 1636, 1651, 1652, 1761, 1760
 1637, 1652, 1653, 1762, 1761
 1638, 1653, 1654, 1763, 1762
 1639, 1654, 1655, 1764, 1763
 1640, 1655, 1656, 1765, 1764
 1641, 1656, 1657, 1766, 1765
 1642, 1657, 1658, 1767, 1766
 1643, 1658, 1659, 1768, 1767
 1644, 1659, 1660, 1769, 1768
 1645, 1660, 1661, 1770, 1769
 1646, 1661, 1662, 1771, 1770
 1647, 1662, 1663, 1772, 1771
 1648, 1663, 1664, 1773, 1772
 1649, 1664, 1665, 1774, 1773
 1650, 1665, 1666, 1775, 1774
 1651, 1666, 1667, 1776, 1775
 1652, 1667, 1668, 1777, 1776
 1653, 1668, 1669, 1778, 1777
 1654, 1669, 1670, 1779, 1778
 1655, 1670, 1671, 1780, 1779
 1656, 1671, 1672, 1781, 1780
 1657, 1672, 1673, 1782, 1781
 1658, 1673, 1674, 1783, 1782
 1659, 1674, 1675, 1784, 1783
 1660, 1675, 1676, 1785, 1784
 1661, 1676, 1677, 1786, 1785
 1662, 1677, 1678, 1787, 1786
 1663, 1678, 1679, 1788, 1787
 1664, 1679, 1680, 1789, 1788
 1665, 1680, 1681, 1790, 1789
 1666, 1681, 1682, 1791, 1790
 1667, 1682, 1683, 1792, 1791
 1668, 1683, 1684, 1793, 1792
 1669, 1684, 1685, 1794, 1793
 1670, 1685, 1686, 1795, 1794
 1671, 1686, 1687, 1796, 1795
 1672, 1687, 1688, 1797, 1796
 1673, 1688, 1689, 1798, 1797
 1674, 1689, 1690, 1799, 1798
 1675, 1690, 1691, 1800, 1799
 1676, 1691, 1692, 1801, 1800
 1677, 1692, 1693, 1802, 1801
 1678, 1693, 1694, 1803, 1802
 1679, 1694, 1695, 1804, 1803
 1680, 1695, 1696, 1805, 1804
 1681, 1696, 1697, 1806, 1805
 1682, 1697, 1698, 1807, 1806
 1683, 1698, 1699, 1808, 1807
 1684, 1699, 1700, 1809, 1808
 1685, 1700, 1701, 1810, 1809
 1686, 1701, 1702, 1811, 1810
 1687, 1702, 1703, 1812, 1811
 1688, 1703, 1704, 1813, 1812
 1689, 1704, 1705, 1814, 1813
 1690, 1705, 1706, 1815, 1814
 1691, 1706, 1707, 1816, 1815
 1692, 1707, 1708, 1817, 1816
 1693, 1708, 1709, 1818, 1817
 1694, 1709, 1710, 1819, 1818
 1695, 1710, 1711, 1820, 1819
 1696, 1711, 1712, 1821, 1820
 1697, 1712, 1713, 1822, 1821
 1698, 1713, 1714, 1823, 1822
 1699, 1714, 1715, 1824, 1823
 1700, 1715, 1716, 1825, 1824
 1701, 1716, 1717, 1826, 1825
 1702, 1717, 1718, 1827, 1826
 1703, 1718, 1719, 1828, 1827
 1704, 1719, 1720, 1829, 1828
 1705, 1720, 1721, 1830, 1829
 1706, 1721, 1722, 1831, 1830
 1707, 1722, 1723, 1832, 1831
 1708, 1723, 1724, 1833, 1832
 1709, 1724, 1725, 1834, 1833
 1710, 1725, 1726, 1835, 1834
 1711, 1726, 1727, 1836, 1835
 1712, 1727, 1728, 1837, 1836
 1713, 1728, 1729, 1838, 1837
 1714, 1729, 1730, 1839, 1838
 1715, 1730, 1731, 1840, 1839
 1716, 1731, 1732, 1841, 1840
 1717, 1732, 1733, 1842, 1841
 1718, 1733, 1734, 1843, 1842
 1719, 1734, 1735, 1844, 1843
 1720, 1735, 1736, 1845, 1844
 1721, 1736, 1737, 1846, 1845
 1722, 1737, 1738, 1847, 1846
 1723, 1738, 1739, 1848, 1847
 1724, 1739, 1740, 1849, 1848
 1725, 1740, 1741, 1850, 1849
 1726, 1741, 1742, 1851, 1850
 1727, 1742, 1743, 1852, 1851
 1728, 1743, 1744, 1853, 1852
 1729, 1745, 1746, 1855, 1854
 1730, 1746, 1747, 1856, 1855
 1731, 1747, 1748, 1857, 1856
 1732, 1748, 1749, 1858, 1857
 1733, 1749, 1750, 1859, 1858
 1734, 1750, 1751, 1860, 1859
 1735, 1751, 1752, 1861, 1860
 1736, 1752, 1753, 1862, 1861
 1737, 1753, 1754, 1863, 1862
 1738, 1754, 1755, 1864, 1863
 1739, 1755, 1756, 1865, 1864
 1740, 1756, 1757, 1866, 1865
 1741, 1757, 1758, 1867, 1866
 1742, 1758, 1759, 1868, 1867
 1743, 1759, 1760, 1869, 1868
 1744, 1760, 1761, 1870, 1869
 1745, 1761, 1762, 1871, 1870
 1746, 1762, 1763, 1872, 1871
 1747, 1763, 1764, 1873, 1872
 1748, 1764, 1765, 1874, 1873
 1749, 1765, 1766, 1875, 1874
 1750, 1766, 1767, 1876, 1875
 1751, 1767, 1768, 1877, 1876
 1752, 1768, 1769, 1878, 1877
 1753, 1769, 1770, 1879, 1878
 1754, 1770, 1771, 1880, 1879
 1755, 1771, 1772, 1881, 1880
 1756, 1772, 1773, 1882, 1881
 1757, 1773, 1774, 1883, 1882
 1758, 1774, 1775, 1884, 1883
 1759, 1775, 1776, 1885, 1884
 1760, 1776, 1777, 1886, 1885
 1761, 1777, 1778, 1887, 1886
 1762, 1778, 1779, 1888, 1887
 1763, 1779, 1780, 1889, 1888
 1764, 1780, 1781, 1890, 1889
 1765, 1781, 1782, 1891, 1890
 1766, 1782, 1783, 1892, 1891
 1767, 1783, 1784, 1893, 1892
 1768, 1784, 1785, 1894, 1893
 1769, 1785, 1786, 1895, 1894
 1770, 1786, 1787, 1896, 1895
 1771, 1787, 1788, 1897, 1896
 1772, 1788, 1789, 1898, 1897
 1773, 1789, 1790, 1899, 1898
 1774, 1790, 1791, 1900, 1899
 1775, 1791, 1792, 1901, 1900
 1776, 1792, 1793, 1902, 1901
 1777, 1793, 1794, 1903, 1902
 1778, 1794, 1795, 1904, 1903
 1779, 1795, 1796, 1905, 1904
 1780, 1796, 1797, 1906, 1905
 1781, 1797, 1798, 1907, 1906
 1782, 1798, 1799, 1908, 1907
 1783, 1799, 1800, 1909, 1908
 1784, 1800, 1801, 1910, 1909
 1785, 1801, 1802, 1911, 1910
 1786, 1802, 1803, 1912, 1911
 1787, 1803, 1804, 1913, 1912
 1788, 1804, 1805, 1914, 1913
 1789, 1805, 1806, 1915, 1914
 1790, 1806, 1807, 1916, 1915
 1791, 1807, 1808, 1917, 1916
 1792, 1808, 1809, 1918, 1917
 1793, 1809, 1810, 1919, 1918
 1794, 1810, 1811, 1920, 1919
 1795, 1811, 1812, 1921, 1920
 1796, 1812, 1813, 1922, 1921
 1797, 1813, 1814, 1923, 1922
 1798, 1814, 1815, 1924, 1923
 1799, 1815, 1816, 1925, 1924
 1800, 1816, 1817, 1926, 1925
 1801, 1817, 1818, 1927, 1926
 1802, 1818, 1819, 1928, 1927
 1803, 1819, 1820, 1929, 1928
 1804, 1820, 1821, 1930, 1929
 1805, 1821, 1822, 1931, 1930
 1806, 1822, 1823, 1932, 1931
 1807, 1823, 1824, 1933, 1932
 1808, 1824, 1825, 1934, 1933
 1809, 1825, 1826, 1935, 1934
 1810, 1826, 1827, 1936, 1935
 1811, 1827, 1828, 1937, 1936
 1812, 1828, 1829, 1938, 1937
 1813, 1829, 1830, 1939, 1938
 1814, 1830, 1831, 1940, 1939
 1815, 1831, 1832, 1941, 1940
 1816, 1832, 1833, 1942, 1941
 1817, 1833, 1834, 1943, 1942
 1818, 1834, 1835, 1944, 1943
 1819, 1835, 1836, 1945, 1944
 1820, 1836, 1837, 1946, 1945
 1821, 1837, 1838, 1947, 1946
 1822, 1838, 1839, 1948, 1947
 1823, 1839, 1840, 1949, 1948
 1824, 1840, 1841, 1950, 1949
 1825, 1841, 1842, 1951, 1950
 1826, 1842, 1843, 1952, 1951
 1827, 1843, 1844, 1953, 1952
 1828, 1844, 1845, 1954, 1953
 1829, 1845, 1846, 1955, 1954
 1830, 1846, 1847, 1956, 1955
 1831, 1847, 1848, 1957, 1956
 1832, 1848, 1849, 1958, 1957
 1833, 1849, 1850, 1959, 1958
 1834, 1850, 1851, 1960, 1959
 1835, 1851, 1852, 1961, 1960
 1836, 1852, 1853, 1962, 1961
 1837, 1854, 1855, 1964, 1963
 1838, 1855, 1856, 1965, 1964
 1839, 1856, 1857, 1966, 1965
 1840, 1857, 1858, 1967, 1966
 1841, 1858, 1859, 1968, 1967
 1842, 1859, 1860, 1969, 1968
 1843, 1860, 1861, 1970, 1969
 1844, 1861, 1862, 1971, 1970
 1845, 1862, 1863, 1972, 1971
 1846, 1863, 1864, 1973, 1972
 1847, 1864, 1865, 1974, 1973
 1848, 1865, 1866, 1975, 1974
 1849, 1866, 1867, 1976, 1975
 1850, 1867, 1868, 1977, 1976
 1851, 1868, 1869, 1978, 1977
 1852, 1869, 1870, 1979, 1978
 1853, 1870, 1871, 1980, 1979
 1854, 1871, 1872, 1981, 1980
 1855, 1872, 1873, 1982, 1981
 1856, 1873, 1874, 1983, 1982
 1857, 1874, 1875, 1984, 1983
 1858, 1875, 1876, 1985, 1984
 1859, 1876, 1877, 1986, 1985
 1860, 1877, 1878, 1987, 1986
 1861, 1878, 1879, 1988, 1987
 1862, 1879, 1880, 1989, 1988
 1863, 1880, 1881, 1990, 1989
 1864, 1881, 1882, 1991, 1990
 1865, 1882, 1883, 1992, 1991
 1866, 1883, 1884, 1993, 1992
 1867, 1884, 1885, 1994, 1993
 1868, 1885, 1886, 1995, 1994
 1869, 1886, 1887, 1996, 1995
 1870, 1887, 1888, 1997, 1996
 1871, 1888, 1889, 1998, 1997
 1872, 1889, 1890, 1999, 1998
 1873, 1890, 1891, 2000, 1999
 1874, 1891, 1892, 2001, 2000
 1875, 1892, 1893, 2002, 2001
 1876, 1893, 1894, 2003, 2002
 1877, 1894, 1895, 2004, 2003
 1878, 1895, 1896, 2005, 2004
 1879, 1896, 1897, 2006, 2005
 1880, 1897, 1898, 2007, 2006
 1881, 1898, 1899, 2008, 2007
 1882, 1899, 1900, 2009, 2008
 1883, 1900, 1901, 2010, 2009
 1884, 1901, 1902, 2011, 2010
 1885, 1902, 1903, 2012, 2011
 1886, 1903, 1904, 2013, 2012
 1887, 1904, 1905, 2014, 2013
 1888, 1905, 1906, 2015, 2014
 1889, 1906, 1907, 2016, 2015
 1890, 1907, 1908, 2017, 2016
 1891, 1908, 1909, 2018, 2017
 1892, 1909, 1910, 2019, 2018
 1893, 1910, 1911, 2020, 2019
 1894, 1911, 1912, 2021, 2020
 1895, 1912, 1913, 2022, 2021
 1896, 1913, 1914, 2023, 2022
 1897, 1914, 1915, 2024, 2023
 1898, 1915, 1916, 2025, 2024
 1899, 1916, 1917, 2026, 2025
 1900, 1917, 1918, 2027, 2026
 1901, 1918, 1919, 2028, 2027
 1902, 1919, 1920, 2029, 2028
 1903, 1920, 1921, 2030, 2029
 1904, 1921, 1922, 2031, 2030
 1905, 1922, 1923, 2032, 2031
 1906, 1923, 1924, 2033, 2032
 1907, 1924, 1925, 2034, 2033
 1908, 1925, 1926, 2035, 2034
 1909, 1926, 1927, 2036, 2035
 1910, 1927, 1928, 2037, 2036
 1911, 1928, 1929, 2038, 2037
 1912, 1929, 1930, 2039, 2038
 1913, 1930, 1931, 2040, 2039
 1914, 1931, 1932, 2041, 2040
 1915, 1932, 1933, 2042, 2041
 1916, 1933, 1934, 2043, 2042
 1917, 1934, 1935, 2044, 2043
 1918, 1935, 1936, 2045, 2044
 1919, 1936, 1937, 2046, 2045
 1920, 1937, 1938, 2047, 2046
 1921, 1938, 1939, 2048, 2047
 1922, 1939, 1940, 2049, 2048
 1923, 1940, 1941, 2050, 2049
 1924, 1941, 1942, 2051, 2050
 1925, 1942, 1943, 2052, 2051
 1926, 1943, 1944, 2053, 2052
 1927, 1944, 1945, 2054, 2053
 1928, 1945, 1946, 2055, 2054
 1929, 1946, 1947, 2056, 2055
 1930, 1947, 1948, 2057, 2056
 1931, 1948, 1949, 2058, 2057
 1932, 1949, 1950, 2059, 2058
 1933, 1950, 1951, 2060, 2059
 1934, 1951, 1952, 2061, 2060
 1935, 1952, 1953, 2062, 2061
 1936, 1953, 1954, 2063, 2062
 1937, 1954, 1955, 2064, 2063
 1938, 1955, 1956, 2065, 2064
 1939, 1956, 1957, 2066, 2065
 1940, 1957, 1958, 2067, 2066
 1941, 1958, 1959, 2068, 2067
 1942, 1959, 1960, 2069, 2068
 1943, 1960, 1961, 2070, 2069
 1944, 1961, 1962, 2071, 2070
*SOLID SECTION, ELSET=FILM, MATERIAL=BIOFILM
*MATERIAL, NAME=BIOFILM
*USER MATERIAL, CONSTANTS=5
** E, nu, beta_depth(CLSM), intercept(CLSM), mode(1=iso volume-matched)
 5000.0, 0.450, 17.180641, -1.337223, 1.0
*DEPVAR
 3
*NSET, NSET=BOTTOM
 1,2,3,4,5,6,7,8,9,10,11,12,13,14,15,16
 17,18,19,20,21,22,23,24,25,26,27,28,29,30,31,32
 33,34,35,36,37,38,39,40,41,42,43,44,45,46,47,48
 49,50,51,52,53,54,55,56,57,58,59,60,61,62,63,64
 65,66,67,68,69,70,71,72,73,74,75,76,77,78,79,80
 81,82,83,84,85,86,87,88,89,90,91,92,93,94,95,96
 97,98,99,100,101,102,103,104,105,106,107,108,109
*NSET, NSET=ALLN
 1,2,3,4,5,6,7,8,9,10,11,12,13,14,15,16
 17,18,19,20,21,22,23,24,25,26,27,28,29,30,31,32
 33,34,35,36,37,38,39,40,41,42,43,44,45,46,47,48
 49,50,51,52,53,54,55,56,57,58,59,60,61,62,63,64
 65,66,67,68,69,70,71,72,73,74,75,76,77,78,79,80
 81,82,83,84,85,86,87,88,89,90,91,92,93,94,95,96
 97,98,99,100,101,102,103,104,105,106,107,108,109,110,111,112
 113,114,115,116,117,118,119,120,121,122,123,124,125,126,127,128
 129,130,131,132,133,134,135,136,137,138,139,140,141,142,143,144
 145,146,147,148,149,150,151,152,153,154,155,156,157,158,159,160
 161,162,163,164,165,166,167,168,169,170,171,172,173,174,175,176
 177,178,179,180,181,182,183,184,185,186,187,188,189,190,191,192
 193,194,195,196,197,198,199,200,201,202,203,204,205,206,207,208
 209,210,211,212,213,214,215,216,217,218,219,220,221,222,223,224
 225,226,227,228,229,230,231,232,233,234,235,236,237,238,239,240
 241,242,243,244,245,246,247,248,249,250,251,252,253,254,255,256
 257,258,259,260,261,262,263,264,265,266,267,268,269,270,271,272
 273,274,275,276,277,278,279,280,281,282,283,284,285,286,287,288
 289,290,291,292,293,294,295,296,297,298,299,300,301,302,303,304
 305,306,307,308,309,310,311,312,313,314,315,316,317,318,319,320
 321,322,323,324,325,326,327,328,329,330,331,332,333,334,335,336
 337,338,339,340,341,342,343,344,345,346,347,348,349,350,351,352
 353,354,355,356,357,358,359,360,361,362,363,364,365,366,367,368
 369,370,371,372,373,374,375,376,377,378,379,380,381,382,383,384
 385,386,387,388,389,390,391,392,393,394,395,396,397,398,399,400
 401,402,403,404,405,406,407,408,409,410,411,412,413,414,415,416
 417,418,419,420,421,422,423,424,425,426,427,428,429,430,431,432
 433,434,435,436,437,438,439,440,441,442,443,444,445,446,447,448
 449,450,451,452,453,454,455,456,457,458,459,460,461,462,463,464
 465,466,467,468,469,470,471,472,473,474,475,476,477,478,479,480
 481,482,483,484,485,486,487,488,489,490,491,492,493,494,495,496
 497,498,499,500,501,502,503,504,505,506,507,508,509,510,511,512
 513,514,515,516,517,518,519,520,521,522,523,524,525,526,527,528
 529,530,531,532,533,534,535,536,537,538,539,540,541,542,543,544
 545,546,547,548,549,550,551,552,553,554,555,556,557,558,559,560
 561,562,563,564,565,566,567,568,569,570,571,572,573,574,575,576
 577,578,579,580,581,582,583,584,585,586,587,588,589,590,591,592
 593,594,595,596,597,598,599,600,601,602,603,604,605,606,607,608
 609,610,611,612,613,614,615,616,617,618,619,620,621,622,623,624
 625,626,627,628,629,630,631,632,633,634,635,636,637,638,639,640
 641,642,643,644,645,646,647,648,649,650,651,652,653,654,655,656
 657,658,659,660,661,662,663,664,665,666,667,668,669,670,671,672
 673,674,675,676,677,678,679,680,681,682,683,684,685,686,687,688
 689,690,691,692,693,694,695,696,697,698,699,700,701,702,703,704
 705,706,707,708,709,710,711,712,713,714,715,716,717,718,719,720
 721,722,723,724,725,726,727,728,729,730,731,732,733,734,735,736
 737,738,739,740,741,742,743,744,745,746,747,748,749,750,751,752
 753,754,755,756,757,758,759,760,761,762,763,764,765,766,767,768
 769,770,771,772,773,774,775,776,777,778,779,780,781,782,783,784
 785,786,787,788,789,790,791,792,793,794,795,796,797,798,799,800
 801,802,803,804,805,806,807,808,809,810,811,812,813,814,815,816
 817,818,819,820,821,822,823,824,825,826,827,828,829,830,831,832
 833,834,835,836,837,838,839,840,841,842,843,844,845,846,847,848
 849,850,851,852,853,854,855,856,857,858,859,860,861,862,863,864
 865,866,867,868,869,870,871,872,873,874,875,876,877,878,879,880
 881,882,883,884,885,886,887,888,889,890,891,892,893,894,895,896
 897,898,899,900,901,902,903,904,905,906,907,908,909,910,911,912
 913,914,915,916,917,918,919,920,921,922,923,924,925,926,927,928
 929,930,931,932,933,934,935,936,937,938,939,940,941,942,943,944
 945,946,947,948,949,950,951,952,953,954,955,956,957,958,959,960
 961,962,963,964,965,966,967,968,969,970,971,972,973,974,975,976
 977,978,979,980,981,982,983,984,985,986,987,988,989,990,991,992
 993,994,995,996,997,998,999,1000,1001,1002,1003,1004,1005,1006,1007,1008
 1009,1010,1011,1012,1013,1014,1015,1016,1017,1018,1019,1020,1021,1022,1023,1024
 1025,1026,1027,1028,1029,1030,1031,1032,1033,1034,1035,1036,1037,1038,1039,1040
 1041,1042,1043,1044,1045,1046,1047,1048,1049,1050,1051,1052,1053,1054,1055,1056
 1057,1058,1059,1060,1061,1062,1063,1064,1065,1066,1067,1068,1069,1070,1071,1072
 1073,1074,1075,1076,1077,1078,1079,1080,1081,1082,1083,1084,1085,1086,1087,1088
 1089,1090,1091,1092,1093,1094,1095,1096,1097,1098,1099,1100,1101,1102,1103,1104
 1105,1106,1107,1108,1109,1110,1111,1112,1113,1114,1115,1116,1117,1118,1119,1120
 1121,1122,1123,1124,1125,1126,1127,1128,1129,1130,1131,1132,1133,1134,1135,1136
 1137,1138,1139,1140,1141,1142,1143,1144,1145,1146,1147,1148,1149,1150,1151,1152
 1153,1154,1155,1156,1157,1158,1159,1160,1161,1162,1163,1164,1165,1166,1167,1168
 1169,1170,1171,1172,1173,1174,1175,1176,1177,1178,1179,1180,1181,1182,1183,1184
 1185,1186,1187,1188,1189,1190,1191,1192,1193,1194,1195,1196,1197,1198,1199,1200
 1201,1202,1203,1204,1205,1206,1207,1208,1209,1210,1211,1212,1213,1214,1215,1216
 1217,1218,1219,1220,1221,1222,1223,1224,1225,1226,1227,1228,1229,1230,1231,1232
 1233,1234,1235,1236,1237,1238,1239,1240,1241,1242,1243,1244,1245,1246,1247,1248
 1249,1250,1251,1252,1253,1254,1255,1256,1257,1258,1259,1260,1261,1262,1263,1264
 1265,1266,1267,1268,1269,1270,1271,1272,1273,1274,1275,1276,1277,1278,1279,1280
 1281,1282,1283,1284,1285,1286,1287,1288,1289,1290,1291,1292,1293,1294,1295,1296
 1297,1298,1299,1300,1301,1302,1303,1304,1305,1306,1307,1308,1309,1310,1311,1312
 1313,1314,1315,1316,1317,1318,1319,1320,1321,1322,1323,1324,1325,1326,1327,1328
 1329,1330,1331,1332,1333,1334,1335,1336,1337,1338,1339,1340,1341,1342,1343,1344
 1345,1346,1347,1348,1349,1350,1351,1352,1353,1354,1355,1356,1357,1358,1359,1360
 1361,1362,1363,1364,1365,1366,1367,1368,1369,1370,1371,1372,1373,1374,1375,1376
 1377,1378,1379,1380,1381,1382,1383,1384,1385,1386,1387,1388,1389,1390,1391,1392
 1393,1394,1395,1396,1397,1398,1399,1400,1401,1402,1403,1404,1405,1406,1407,1408
 1409,1410,1411,1412,1413,1414,1415,1416,1417,1418,1419,1420,1421,1422,1423,1424
 1425,1426,1427,1428,1429,1430,1431,1432,1433,1434,1435,1436,1437,1438,1439,1440
 1441,1442,1443,1444,1445,1446,1447,1448,1449,1450,1451,1452,1453,1454,1455,1456
 1457,1458,1459,1460,1461,1462,1463,1464,1465,1466,1467,1468,1469,1470,1471,1472
 1473,1474,1475,1476,1477,1478,1479,1480,1481,1482,1483,1484,1485,1486,1487,1488
 1489,1490,1491,1492,1493,1494,1495,1496,1497,1498,1499,1500,1501,1502,1503,1504
 1505,1506,1507,1508,1509,1510,1511,1512,1513,1514,1515,1516,1517,1518,1519,1520
 1521,1522,1523,1524,1525,1526,1527,1528,1529,1530,1531,1532,1533,1534,1535,1536
 1537,1538,1539,1540,1541,1542,1543,1544,1545,1546,1547,1548,1549,1550,1551,1552
 1553,1554,1555,1556,1557,1558,1559,1560,1561,1562,1563,1564,1565,1566,1567,1568
 1569,1570,1571,1572,1573,1574,1575,1576,1577,1578,1579,1580,1581,1582,1583,1584
 1585,1586,1587,1588,1589,1590,1591,1592,1593,1594,1595,1596,1597,1598,1599,1600
 1601,1602,1603,1604,1605,1606,1607,1608,1609,1610,1611,1612,1613,1614,1615,1616
 1617,1618,1619,1620,1621,1622,1623,1624,1625,1626,1627,1628,1629,1630,1631,1632
 1633,1634,1635,1636,1637,1638,1639,1640,1641,1642,1643,1644,1645,1646,1647,1648
 1649,1650,1651,1652,1653,1654,1655,1656,1657,1658,1659,1660,1661,1662,1663,1664
 1665,1666,1667,1668,1669,1670,1671,1672,1673,1674,1675,1676,1677,1678,1679,1680
 1681,1682,1683,1684,1685,1686,1687,1688,1689,1690,1691,1692,1693,1694,1695,1696
 1697,1698,1699,1700,1701,1702,1703,1704,1705,1706,1707,1708,1709,1710,1711,1712
 1713,1714,1715,1716,1717,1718,1719,1720,1721,1722,1723,1724,1725,1726,1727,1728
 1729,1730,1731,1732,1733,1734,1735,1736,1737,1738,1739,1740,1741,1742,1743,1744
 1745,1746,1747,1748,1749,1750,1751,1752,1753,1754,1755,1756,1757,1758,1759,1760
 1761,1762,1763,1764,1765,1766,1767,1768,1769,1770,1771,1772,1773,1774,1775,1776
 1777,1778,1779,1780,1781,1782,1783,1784,1785,1786,1787,1788,1789,1790,1791,1792
 1793,1794,1795,1796,1797,1798,1799,1800,1801,1802,1803,1804,1805,1806,1807,1808
 1809,1810,1811,1812,1813,1814,1815,1816,1817,1818,1819,1820,1821,1822,1823,1824
 1825,1826,1827,1828,1829,1830,1831,1832,1833,1834,1835,1836,1837,1838,1839,1840
 1841,1842,1843,1844,1845,1846,1847,1848,1849,1850,1851,1852,1853,1854,1855,1856
 1857,1858,1859,1860,1861,1862,1863,1864,1865,1866,1867,1868,1869,1870,1871,1872
 1873,1874,1875,1876,1877,1878,1879,1880,1881,1882,1883,1884,1885,1886,1887,1888
 1889,1890,1891,1892,1893,1894,1895,1896,1897,1898,1899,1900,1901,1902,1903,1904
 1905,1906,1907,1908,1909,1910,1911,1912,1913,1914,1915,1916,1917,1918,1919,1920
 1921,1922,1923,1924,1925,1926,1927,1928,1929,1930,1931,1932,1933,1934,1935,1936
 1937,1938,1939,1940,1941,1942,1943,1944,1945,1946,1947,1948,1949,1950,1951,1952
 1953,1954,1955,1956,1957,1958,1959,1960,1961,1962,1963,1964,1965,1966,1967,1968
 1969,1970,1971,1972,1973,1974,1975,1976,1977,1978,1979,1980,1981,1982,1983,1984
 1985,1986,1987,1988,1989,1990,1991,1992,1993,1994,1995,1996,1997,1998,1999,2000
 2001,2002,2003,2004,2005,2006,2007,2008,2009,2010,2011,2012,2013,2014,2015,2016
 2017,2018,2019,2020,2021,2022,2023,2024,2025,2026,2027,2028,2029,2030,2031,2032
 2033,2034,2035,2036,2037,2038,2039,2040,2041,2042,2043,2044,2045,2046,2047,2048
 2049,2050,2051,2052,2053,2054,2055,2056,2057,2058,2059,2060,2061,2062,2063,2064
 2065,2066,2067,2068,2069,2070,2071
*INITIAL CONDITIONS, TYPE=FIELD, VARIABLE=1
 ALLN, 0.0
*BOUNDARY
 BOTTOM, 1, 2
*STEP, NLGEOM=YES, INC=300
 Ramp phi_Pg(z) 0 -> profile; finite-strain growth F=Fe.Fg -> interface stress
*STATIC
 0.02, 1.0, 1.0E-5, 0.05
*FIELD, VARIABLE=1
 1, 0.014953
 2, 0.014953
 3, 0.014953
 4, 0.014953
 5, 0.014953
 6, 0.014953
 7, 0.014953
 8, 0.014953
 9, 0.014953
 10, 0.014953
 11, 0.014953
 12, 0.014953
 13, 0.014953
 14, 0.014953
 15, 0.014953
 16, 0.014953
 17, 0.014953
 18, 0.014953
 19, 0.014953
 20, 0.014953
 21, 0.014953
 22, 0.014953
 23, 0.014953
 24, 0.014953
 25, 0.014953
 26, 0.014953
 27, 0.014953
 28, 0.014953
 29, 0.014953
 30, 0.014953
 31, 0.014953
 32, 0.014953
 33, 0.014953
 34, 0.014953
 35, 0.014953
 36, 0.014953
 37, 0.014953
 38, 0.014953
 39, 0.014953
 40, 0.014953
 41, 0.014953
 42, 0.014953
 43, 0.014953
 44, 0.014953
 45, 0.014953
 46, 0.014953
 47, 0.014953
 48, 0.014953
 49, 0.014953
 50, 0.014953
 51, 0.014953
 52, 0.014953
 53, 0.014953
 54, 0.014953
 55, 0.014953
 56, 0.014953
 57, 0.014953
 58, 0.014953
 59, 0.014953
 60, 0.014953
 61, 0.014953
 62, 0.014953
 63, 0.014953
 64, 0.014953
 65, 0.014953
 66, 0.014953
 67, 0.014953
 68, 0.014953
 69, 0.014953
 70, 0.014953
 71, 0.014953
 72, 0.014953
 73, 0.014953
 74, 0.014953
 75, 0.014953
 76, 0.014953
 77, 0.014953
 78, 0.014953
 79, 0.014953
 80, 0.014953
 81, 0.014953
 82, 0.014953
 83, 0.014953
 84, 0.014953
 85, 0.014953
 86, 0.014953
 87, 0.014953
 88, 0.014953
 89, 0.014953
 90, 0.014953
 91, 0.014953
 92, 0.014953
 93, 0.014953
 94, 0.014953
 95, 0.014953
 96, 0.014953
 97, 0.014953
 98, 0.014953
 99, 0.014953
 100, 0.014953
 101, 0.014953
 102, 0.014953
 103, 0.014953
 104, 0.014953
 105, 0.014953
 106, 0.014953
 107, 0.014953
 108, 0.014953
 109, 0.014953
 110, 0.038231
 111, 0.038231
 112, 0.038231
 113, 0.038231
 114, 0.038231
 115, 0.038231
 116, 0.038231
 117, 0.038231
 118, 0.038231
 119, 0.038231
 120, 0.038231
 121, 0.038231
 122, 0.038231
 123, 0.038231
 124, 0.038231
 125, 0.038231
 126, 0.038231
 127, 0.038231
 128, 0.038231
 129, 0.038231
 130, 0.038231
 131, 0.038231
 132, 0.038231
 133, 0.038231
 134, 0.038231
 135, 0.038231
 136, 0.038231
 137, 0.038231
 138, 0.038231
 139, 0.038231
 140, 0.038231
 141, 0.038231
 142, 0.038231
 143, 0.038231
 144, 0.038231
 145, 0.038231
 146, 0.038231
 147, 0.038231
 148, 0.038231
 149, 0.038231
 150, 0.038231
 151, 0.038231
 152, 0.038231
 153, 0.038231
 154, 0.038231
 155, 0.038231
 156, 0.038231
 157, 0.038231
 158, 0.038231
 159, 0.038231
 160, 0.038231
 161, 0.038231
 162, 0.038231
 163, 0.038231
 164, 0.038231
 165, 0.038231
 166, 0.038231
 167, 0.038231
 168, 0.038231
 169, 0.038231
 170, 0.038231
 171, 0.038231
 172, 0.038231
 173, 0.038231
 174, 0.038231
 175, 0.038231
 176, 0.038231
 177, 0.038231
 178, 0.038231
 179, 0.038231
 180, 0.038231
 181, 0.038231
 182, 0.038231
 183, 0.038231
 184, 0.038231
 185, 0.038231
 186, 0.038231
 187, 0.038231
 188, 0.038231
 189, 0.038231
 190, 0.038231
 191, 0.038231
 192, 0.038231
 193, 0.038231
 194, 0.038231
 195, 0.038231
 196, 0.038231
 197, 0.038231
 198, 0.038231
 199, 0.038231
 200, 0.038231
 201, 0.038231
 202, 0.038231
 203, 0.038231
 204, 0.038231
 205, 0.038231
 206, 0.038231
 207, 0.038231
 208, 0.038231
 209, 0.038231
 210, 0.038231
 211, 0.038231
 212, 0.038231
 213, 0.038231
 214, 0.038231
 215, 0.038231
 216, 0.038231
 217, 0.038231
 218, 0.038231
 219, 0.145456
 220, 0.145456
 221, 0.145456
 222, 0.145456
 223, 0.145456
 224, 0.145456
 225, 0.145456
 226, 0.145456
 227, 0.145456
 228, 0.145456
 229, 0.145456
 230, 0.145456
 231, 0.145456
 232, 0.145456
 233, 0.145456
 234, 0.145456
 235, 0.145456
 236, 0.145456
 237, 0.145456
 238, 0.145456
 239, 0.145456
 240, 0.145456
 241, 0.145456
 242, 0.145456
 243, 0.145456
 244, 0.145456
 245, 0.145456
 246, 0.145456
 247, 0.145456
 248, 0.145456
 249, 0.145456
 250, 0.145456
 251, 0.145456
 252, 0.145456
 253, 0.145456
 254, 0.145456
 255, 0.145456
 256, 0.145456
 257, 0.145456
 258, 0.145456
 259, 0.145456
 260, 0.145456
 261, 0.145456
 262, 0.145456
 263, 0.145456
 264, 0.145456
 265, 0.145456
 266, 0.145456
 267, 0.145456
 268, 0.145456
 269, 0.145456
 270, 0.145456
 271, 0.145456
 272, 0.145456
 273, 0.145456
 274, 0.145456
 275, 0.145456
 276, 0.145456
 277, 0.145456
 278, 0.145456
 279, 0.145456
 280, 0.145456
 281, 0.145456
 282, 0.145456
 283, 0.145456
 284, 0.145456
 285, 0.145456
 286, 0.145456
 287, 0.145456
 288, 0.145456
 289, 0.145456
 290, 0.145456
 291, 0.145456
 292, 0.145456
 293, 0.145456
 294, 0.145456
 295, 0.145456
 296, 0.145456
 297, 0.145456
 298, 0.145456
 299, 0.145456
 300, 0.145456
 301, 0.145456
 302, 0.145456
 303, 0.145456
 304, 0.145456
 305, 0.145456
 306, 0.145456
 307, 0.145456
 308, 0.145456
 309, 0.145456
 310, 0.145456
 311, 0.145456
 312, 0.145456
 313, 0.145456
 314, 0.145456
 315, 0.145456
 316, 0.145456
 317, 0.145456
 318, 0.145456
 319, 0.145456
 320, 0.145456
 321, 0.145456
 322, 0.145456
 323, 0.145456
 324, 0.145456
 325, 0.145456
 326, 0.145456
 327, 0.145456
 328, 0.151879
 329, 0.151879
 330, 0.151879
 331, 0.151879
 332, 0.151879
 333, 0.151879
 334, 0.151879
 335, 0.151879
 336, 0.151879
 337, 0.151879
 338, 0.151879
 339, 0.151879
 340, 0.151879
 341, 0.151879
 342, 0.151879
 343, 0.151879
 344, 0.151879
 345, 0.151879
 346, 0.151879
 347, 0.151879
 348, 0.151879
 349, 0.151879
 350, 0.151879
 351, 0.151879
 352, 0.151879
 353, 0.151879
 354, 0.151879
 355, 0.151879
 356, 0.151879
 357, 0.151879
 358, 0.151879
 359, 0.151879
 360, 0.151879
 361, 0.151879
 362, 0.151879
 363, 0.151879
 364, 0.151879
 365, 0.151879
 366, 0.151879
 367, 0.151879
 368, 0.151879
 369, 0.151879
 370, 0.151879
 371, 0.151879
 372, 0.151879
 373, 0.151879
 374, 0.151879
 375, 0.151879
 376, 0.151879
 377, 0.151879
 378, 0.151879
 379, 0.151879
 380, 0.151879
 381, 0.151879
 382, 0.151879
 383, 0.151879
 384, 0.151879
 385, 0.151879
 386, 0.151879
 387, 0.151879
 388, 0.151879
 389, 0.151879
 390, 0.151879
 391, 0.151879
 392, 0.151879
 393, 0.151879
 394, 0.151879
 395, 0.151879
 396, 0.151879
 397, 0.151879
 398, 0.151879
 399, 0.151879
 400, 0.151879
 401, 0.151879
 402, 0.151879
 403, 0.151879
 404, 0.151879
 405, 0.151879
 406, 0.151879
 407, 0.151879
 408, 0.151879
 409, 0.151879
 410, 0.151879
 411, 0.151879
 412, 0.151879
 413, 0.151879
 414, 0.151879
 415, 0.151879
 416, 0.151879
 417, 0.151879
 418, 0.151879
 419, 0.151879
 420, 0.151879
 421, 0.151879
 422, 0.151879
 423, 0.151879
 424, 0.151879
 425, 0.151879
 426, 0.151879
 427, 0.151879
 428, 0.151879
 429, 0.151879
 430, 0.151879
 431, 0.151879
 432, 0.151879
 433, 0.151879
 434, 0.151879
 435, 0.151879
 436, 0.151879
 437, 0.093631
 438, 0.093631
 439, 0.093631
 440, 0.093631
 441, 0.093631
 442, 0.093631
 443, 0.093631
 444, 0.093631
 445, 0.093631
 446, 0.093631
 447, 0.093631
 448, 0.093631
 449, 0.093631
 450, 0.093631
 451, 0.093631
 452, 0.093631
 453, 0.093631
 454, 0.093631
 455, 0.093631
 456, 0.093631
 457, 0.093631
 458, 0.093631
 459, 0.093631
 460, 0.093631
 461, 0.093631
 462, 0.093631
 463, 0.093631
 464, 0.093631
 465, 0.093631
 466, 0.093631
 467, 0.093631
 468, 0.093631
 469, 0.093631
 470, 0.093631
 471, 0.093631
 472, 0.093631
 473, 0.093631
 474, 0.093631
 475, 0.093631
 476, 0.093631
 477, 0.093631
 478, 0.093631
 479, 0.093631
 480, 0.093631
 481, 0.093631
 482, 0.093631
 483, 0.093631
 484, 0.093631
 485, 0.093631
 486, 0.093631
 487, 0.093631
 488, 0.093631
 489, 0.093631
 490, 0.093631
 491, 0.093631
 492, 0.093631
 493, 0.093631
 494, 0.093631
 495, 0.093631
 496, 0.093631
 497, 0.093631
 498, 0.093631
 499, 0.093631
 500, 0.093631
 501, 0.093631
 502, 0.093631
 503, 0.093631
 504, 0.093631
 505, 0.093631
 506, 0.093631
 507, 0.093631
 508, 0.093631
 509, 0.093631
 510, 0.093631
 511, 0.093631
 512, 0.093631
 513, 0.093631
 514, 0.093631
 515, 0.093631
 516, 0.093631
 517, 0.093631
 518, 0.093631
 519, 0.093631
 520, 0.093631
 521, 0.093631
 522, 0.093631
 523, 0.093631
 524, 0.093631
 525, 0.093631
 526, 0.093631
 527, 0.093631
 528, 0.093631
 529, 0.093631
 530, 0.093631
 531, 0.093631
 532, 0.093631
 533, 0.093631
 534, 0.093631
 535, 0.093631
 536, 0.093631
 537, 0.093631
 538, 0.093631
 539, 0.093631
 540, 0.093631
 541, 0.093631
 542, 0.093631
 543, 0.093631
 544, 0.093631
 545, 0.093631
 546, 0.069913
 547, 0.069913
 548, 0.069913
 549, 0.069913
 550, 0.069913
 551, 0.069913
 552, 0.069913
 553, 0.069913
 554, 0.069913
 555, 0.069913
 556, 0.069913
 557, 0.069913
 558, 0.069913
 559, 0.069913
 560, 0.069913
 561, 0.069913
 562, 0.069913
 563, 0.069913
 564, 0.069913
 565, 0.069913
 566, 0.069913
 567, 0.069913
 568, 0.069913
 569, 0.069913
 570, 0.069913
 571, 0.069913
 572, 0.069913
 573, 0.069913
 574, 0.069913
 575, 0.069913
 576, 0.069913
 577, 0.069913
 578, 0.069913
 579, 0.069913
 580, 0.069913
 581, 0.069913
 582, 0.069913
 583, 0.069913
 584, 0.069913
 585, 0.069913
 586, 0.069913
 587, 0.069913
 588, 0.069913
 589, 0.069913
 590, 0.069913
 591, 0.069913
 592, 0.069913
 593, 0.069913
 594, 0.069913
 595, 0.069913
 596, 0.069913
 597, 0.069913
 598, 0.069913
 599, 0.069913
 600, 0.069913
 601, 0.069913
 602, 0.069913
 603, 0.069913
 604, 0.069913
 605, 0.069913
 606, 0.069913
 607, 0.069913
 608, 0.069913
 609, 0.069913
 610, 0.069913
 611, 0.069913
 612, 0.069913
 613, 0.069913
 614, 0.069913
 615, 0.069913
 616, 0.069913
 617, 0.069913
 618, 0.069913
 619, 0.069913
 620, 0.069913
 621, 0.069913
 622, 0.069913
 623, 0.069913
 624, 0.069913
 625, 0.069913
 626, 0.069913
 627, 0.069913
 628, 0.069913
 629, 0.069913
 630, 0.069913
 631, 0.069913
 632, 0.069913
 633, 0.069913
 634, 0.069913
 635, 0.069913
 636, 0.069913
 637, 0.069913
 638, 0.069913
 639, 0.069913
 640, 0.069913
 641, 0.069913
 642, 0.069913
 643, 0.069913
 644, 0.069913
 645, 0.069913
 646, 0.069913
 647, 0.069913
 648, 0.069913
 649, 0.069913
 650, 0.069913
 651, 0.069913
 652, 0.069913
 653, 0.069913
 654, 0.069913
 655, 0.064639
 656, 0.064639
 657, 0.064639
 658, 0.064639
 659, 0.064639
 660, 0.064639
 661, 0.064639
 662, 0.064639
 663, 0.064639
 664, 0.064639
 665, 0.064639
 666, 0.064639
 667, 0.064639
 668, 0.064639
 669, 0.064639
 670, 0.064639
 671, 0.064639
 672, 0.064639
 673, 0.064639
 674, 0.064639
 675, 0.064639
 676, 0.064639
 677, 0.064639
 678, 0.064639
 679, 0.064639
 680, 0.064639
 681, 0.064639
 682, 0.064639
 683, 0.064639
 684, 0.064639
 685, 0.064639
 686, 0.064639
 687, 0.064639
 688, 0.064639
 689, 0.064639
 690, 0.064639
 691, 0.064639
 692, 0.064639
 693, 0.064639
 694, 0.064639
 695, 0.064639
 696, 0.064639
 697, 0.064639
 698, 0.064639
 699, 0.064639
 700, 0.064639
 701, 0.064639
 702, 0.064639
 703, 0.064639
 704, 0.064639
 705, 0.064639
 706, 0.064639
 707, 0.064639
 708, 0.064639
 709, 0.064639
 710, 0.064639
 711, 0.064639
 712, 0.064639
 713, 0.064639
 714, 0.064639
 715, 0.064639
 716, 0.064639
 717, 0.064639
 718, 0.064639
 719, 0.064639
 720, 0.064639
 721, 0.064639
 722, 0.064639
 723, 0.064639
 724, 0.064639
 725, 0.064639
 726, 0.064639
 727, 0.064639
 728, 0.064639
 729, 0.064639
 730, 0.064639
 731, 0.064639
 732, 0.064639
 733, 0.064639
 734, 0.064639
 735, 0.064639
 736, 0.064639
 737, 0.064639
 738, 0.064639
 739, 0.064639
 740, 0.064639
 741, 0.064639
 742, 0.064639
 743, 0.064639
 744, 0.064639
 745, 0.064639
 746, 0.064639
 747, 0.064639
 748, 0.064639
 749, 0.064639
 750, 0.064639
 751, 0.064639
 752, 0.064639
 753, 0.064639
 754, 0.064639
 755, 0.064639
 756, 0.064639
 757, 0.064639
 758, 0.064639
 759, 0.064639
 760, 0.064639
 761, 0.064639
 762, 0.064639
 763, 0.064639
 764, 0.065566
 765, 0.065566
 766, 0.065566
 767, 0.065566
 768, 0.065566
 769, 0.065566
 770, 0.065566
 771, 0.065566
 772, 0.065566
 773, 0.065566
 774, 0.065566
 775, 0.065566
 776, 0.065566
 777, 0.065566
 778, 0.065566
 779, 0.065566
 780, 0.065566
 781, 0.065566
 782, 0.065566
 783, 0.065566
 784, 0.065566
 785, 0.065566
 786, 0.065566
 787, 0.065566
 788, 0.065566
 789, 0.065566
 790, 0.065566
 791, 0.065566
 792, 0.065566
 793, 0.065566
 794, 0.065566
 795, 0.065566
 796, 0.065566
 797, 0.065566
 798, 0.065566
 799, 0.065566
 800, 0.065566
 801, 0.065566
 802, 0.065566
 803, 0.065566
 804, 0.065566
 805, 0.065566
 806, 0.065566
 807, 0.065566
 808, 0.065566
 809, 0.065566
 810, 0.065566
 811, 0.065566
 812, 0.065566
 813, 0.065566
 814, 0.065566
 815, 0.065566
 816, 0.065566
 817, 0.065566
 818, 0.065566
 819, 0.065566
 820, 0.065566
 821, 0.065566
 822, 0.065566
 823, 0.065566
 824, 0.065566
 825, 0.065566
 826, 0.065566
 827, 0.065566
 828, 0.065566
 829, 0.065566
 830, 0.065566
 831, 0.065566
 832, 0.065566
 833, 0.065566
 834, 0.065566
 835, 0.065566
 836, 0.065566
 837, 0.065566
 838, 0.065566
 839, 0.065566
 840, 0.065566
 841, 0.065566
 842, 0.065566
 843, 0.065566
 844, 0.065566
 845, 0.065566
 846, 0.065566
 847, 0.065566
 848, 0.065566
 849, 0.065566
 850, 0.065566
 851, 0.065566
 852, 0.065566
 853, 0.065566
 854, 0.065566
 855, 0.065566
 856, 0.065566
 857, 0.065566
 858, 0.065566
 859, 0.065566
 860, 0.065566
 861, 0.065566
 862, 0.065566
 863, 0.065566
 864, 0.065566
 865, 0.065566
 866, 0.065566
 867, 0.065566
 868, 0.065566
 869, 0.065566
 870, 0.065566
 871, 0.065566
 872, 0.065566
 873, 0.070295
 874, 0.070295
 875, 0.070295
 876, 0.070295
 877, 0.070295
 878, 0.070295
 879, 0.070295
 880, 0.070295
 881, 0.070295
 882, 0.070295
 883, 0.070295
 884, 0.070295
 885, 0.070295
 886, 0.070295
 887, 0.070295
 888, 0.070295
 889, 0.070295
 890, 0.070295
 891, 0.070295
 892, 0.070295
 893, 0.070295
 894, 0.070295
 895, 0.070295
 896, 0.070295
 897, 0.070295
 898, 0.070295
 899, 0.070295
 900, 0.070295
 901, 0.070295
 902, 0.070295
 903, 0.070295
 904, 0.070295
 905, 0.070295
 906, 0.070295
 907, 0.070295
 908, 0.070295
 909, 0.070295
 910, 0.070295
 911, 0.070295
 912, 0.070295
 913, 0.070295
 914, 0.070295
 915, 0.070295
 916, 0.070295
 917, 0.070295
 918, 0.070295
 919, 0.070295
 920, 0.070295
 921, 0.070295
 922, 0.070295
 923, 0.070295
 924, 0.070295
 925, 0.070295
 926, 0.070295
 927, 0.070295
 928, 0.070295
 929, 0.070295
 930, 0.070295
 931, 0.070295
 932, 0.070295
 933, 0.070295
 934, 0.070295
 935, 0.070295
 936, 0.070295
 937, 0.070295
 938, 0.070295
 939, 0.070295
 940, 0.070295
 941, 0.070295
 942, 0.070295
 943, 0.070295
 944, 0.070295
 945, 0.070295
 946, 0.070295
 947, 0.070295
 948, 0.070295
 949, 0.070295
 950, 0.070295
 951, 0.070295
 952, 0.070295
 953, 0.070295
 954, 0.070295
 955, 0.070295
 956, 0.070295
 957, 0.070295
 958, 0.070295
 959, 0.070295
 960, 0.070295
 961, 0.070295
 962, 0.070295
 963, 0.070295
 964, 0.070295
 965, 0.070295
 966, 0.070295
 967, 0.070295
 968, 0.070295
 969, 0.070295
 970, 0.070295
 971, 0.070295
 972, 0.070295
 973, 0.070295
 974, 0.070295
 975, 0.070295
 976, 0.070295
 977, 0.070295
 978, 0.070295
 979, 0.070295
 980, 0.070295
 981, 0.070295
 982, 0.074842
 983, 0.074842
 984, 0.074842
 985, 0.074842
 986, 0.074842
 987, 0.074842
 988, 0.074842
 989, 0.074842
 990, 0.074842
 991, 0.074842
 992, 0.074842
 993, 0.074842
 994, 0.074842
 995, 0.074842
 996, 0.074842
 997, 0.074842
 998, 0.074842
 999, 0.074842
 1000, 0.074842
 1001, 0.074842
 1002, 0.074842
 1003, 0.074842
 1004, 0.074842
 1005, 0.074842
 1006, 0.074842
 1007, 0.074842
 1008, 0.074842
 1009, 0.074842
 1010, 0.074842
 1011, 0.074842
 1012, 0.074842
 1013, 0.074842
 1014, 0.074842
 1015, 0.074842
 1016, 0.074842
 1017, 0.074842
 1018, 0.074842
 1019, 0.074842
 1020, 0.074842
 1021, 0.074842
 1022, 0.074842
 1023, 0.074842
 1024, 0.074842
 1025, 0.074842
 1026, 0.074842
 1027, 0.074842
 1028, 0.074842
 1029, 0.074842
 1030, 0.074842
 1031, 0.074842
 1032, 0.074842
 1033, 0.074842
 1034, 0.074842
 1035, 0.074842
 1036, 0.074842
 1037, 0.074842
 1038, 0.074842
 1039, 0.074842
 1040, 0.074842
 1041, 0.074842
 1042, 0.074842
 1043, 0.074842
 1044, 0.074842
 1045, 0.074842
 1046, 0.074842
 1047, 0.074842
 1048, 0.074842
 1049, 0.074842
 1050, 0.074842
 1051, 0.074842
 1052, 0.074842
 1053, 0.074842
 1054, 0.074842
 1055, 0.074842
 1056, 0.074842
 1057, 0.074842
 1058, 0.074842
 1059, 0.074842
 1060, 0.074842
 1061, 0.074842
 1062, 0.074842
 1063, 0.074842
 1064, 0.074842
 1065, 0.074842
 1066, 0.074842
 1067, 0.074842
 1068, 0.074842
 1069, 0.074842
 1070, 0.074842
 1071, 0.074842
 1072, 0.074842
 1073, 0.074842
 1074, 0.074842
 1075, 0.074842
 1076, 0.074842
 1077, 0.074842
 1078, 0.074842
 1079, 0.074842
 1080, 0.074842
 1081, 0.074842
 1082, 0.074842
 1083, 0.074842
 1084, 0.074842
 1085, 0.074842
 1086, 0.074842
 1087, 0.074842
 1088, 0.074842
 1089, 0.074842
 1090, 0.074842
 1091, 0.081847
 1092, 0.081847
 1093, 0.081847
 1094, 0.081847
 1095, 0.081847
 1096, 0.081847
 1097, 0.081847
 1098, 0.081847
 1099, 0.081847
 1100, 0.081847
 1101, 0.081847
 1102, 0.081847
 1103, 0.081847
 1104, 0.081847
 1105, 0.081847
 1106, 0.081847
 1107, 0.081847
 1108, 0.081847
 1109, 0.081847
 1110, 0.081847
 1111, 0.081847
 1112, 0.081847
 1113, 0.081847
 1114, 0.081847
 1115, 0.081847
 1116, 0.081847
 1117, 0.081847
 1118, 0.081847
 1119, 0.081847
 1120, 0.081847
 1121, 0.081847
 1122, 0.081847
 1123, 0.081847
 1124, 0.081847
 1125, 0.081847
 1126, 0.081847
 1127, 0.081847
 1128, 0.081847
 1129, 0.081847
 1130, 0.081847
 1131, 0.081847
 1132, 0.081847
 1133, 0.081847
 1134, 0.081847
 1135, 0.081847
 1136, 0.081847
 1137, 0.081847
 1138, 0.081847
 1139, 0.081847
 1140, 0.081847
 1141, 0.081847
 1142, 0.081847
 1143, 0.081847
 1144, 0.081847
 1145, 0.081847
 1146, 0.081847
 1147, 0.081847
 1148, 0.081847
 1149, 0.081847
 1150, 0.081847
 1151, 0.081847
 1152, 0.081847
 1153, 0.081847
 1154, 0.081847
 1155, 0.081847
 1156, 0.081847
 1157, 0.081847
 1158, 0.081847
 1159, 0.081847
 1160, 0.081847
 1161, 0.081847
 1162, 0.081847
 1163, 0.081847
 1164, 0.081847
 1165, 0.081847
 1166, 0.081847
 1167, 0.081847
 1168, 0.081847
 1169, 0.081847
 1170, 0.081847
 1171, 0.081847
 1172, 0.081847
 1173, 0.081847
 1174, 0.081847
 1175, 0.081847
 1176, 0.081847
 1177, 0.081847
 1178, 0.081847
 1179, 0.081847
 1180, 0.081847
 1181, 0.081847
 1182, 0.081847
 1183, 0.081847
 1184, 0.081847
 1185, 0.081847
 1186, 0.081847
 1187, 0.081847
 1188, 0.081847
 1189, 0.081847
 1190, 0.081847
 1191, 0.081847
 1192, 0.081847
 1193, 0.081847
 1194, 0.081847
 1195, 0.081847
 1196, 0.081847
 1197, 0.081847
 1198, 0.081847
 1199, 0.081847
 1200, 0.088687
 1201, 0.088687
 1202, 0.088687
 1203, 0.088687
 1204, 0.088687
 1205, 0.088687
 1206, 0.088687
 1207, 0.088687
 1208, 0.088687
 1209, 0.088687
 1210, 0.088687
 1211, 0.088687
 1212, 0.088687
 1213, 0.088687
 1214, 0.088687
 1215, 0.088687
 1216, 0.088687
 1217, 0.088687
 1218, 0.088687
 1219, 0.088687
 1220, 0.088687
 1221, 0.088687
 1222, 0.088687
 1223, 0.088687
 1224, 0.088687
 1225, 0.088687
 1226, 0.088687
 1227, 0.088687
 1228, 0.088687
 1229, 0.088687
 1230, 0.088687
 1231, 0.088687
 1232, 0.088687
 1233, 0.088687
 1234, 0.088687
 1235, 0.088687
 1236, 0.088687
 1237, 0.088687
 1238, 0.088687
 1239, 0.088687
 1240, 0.088687
 1241, 0.088687
 1242, 0.088687
 1243, 0.088687
 1244, 0.088687
 1245, 0.088687
 1246, 0.088687
 1247, 0.088687
 1248, 0.088687
 1249, 0.088687
 1250, 0.088687
 1251, 0.088687
 1252, 0.088687
 1253, 0.088687
 1254, 0.088687
 1255, 0.088687
 1256, 0.088687
 1257, 0.088687
 1258, 0.088687
 1259, 0.088687
 1260, 0.088687
 1261, 0.088687
 1262, 0.088687
 1263, 0.088687
 1264, 0.088687
 1265, 0.088687
 1266, 0.088687
 1267, 0.088687
 1268, 0.088687
 1269, 0.088687
 1270, 0.088687
 1271, 0.088687
 1272, 0.088687
 1273, 0.088687
 1274, 0.088687
 1275, 0.088687
 1276, 0.088687
 1277, 0.088687
 1278, 0.088687
 1279, 0.088687
 1280, 0.088687
 1281, 0.088687
 1282, 0.088687
 1283, 0.088687
 1284, 0.088687
 1285, 0.088687
 1286, 0.088687
 1287, 0.088687
 1288, 0.088687
 1289, 0.088687
 1290, 0.088687
 1291, 0.088687
 1292, 0.088687
 1293, 0.088687
 1294, 0.088687
 1295, 0.088687
 1296, 0.088687
 1297, 0.088687
 1298, 0.088687
 1299, 0.088687
 1300, 0.088687
 1301, 0.088687
 1302, 0.088687
 1303, 0.088687
 1304, 0.088687
 1305, 0.088687
 1306, 0.088687
 1307, 0.088687
 1308, 0.088687
 1309, 0.093757
 1310, 0.093757
 1311, 0.093757
 1312, 0.093757
 1313, 0.093757
 1314, 0.093757
 1315, 0.093757
 1316, 0.093757
 1317, 0.093757
 1318, 0.093757
 1319, 0.093757
 1320, 0.093757
 1321, 0.093757
 1322, 0.093757
 1323, 0.093757
 1324, 0.093757
 1325, 0.093757
 1326, 0.093757
 1327, 0.093757
 1328, 0.093757
 1329, 0.093757
 1330, 0.093757
 1331, 0.093757
 1332, 0.093757
 1333, 0.093757
 1334, 0.093757
 1335, 0.093757
 1336, 0.093757
 1337, 0.093757
 1338, 0.093757
 1339, 0.093757
 1340, 0.093757
 1341, 0.093757
 1342, 0.093757
 1343, 0.093757
 1344, 0.093757
 1345, 0.093757
 1346, 0.093757
 1347, 0.093757
 1348, 0.093757
 1349, 0.093757
 1350, 0.093757
 1351, 0.093757
 1352, 0.093757
 1353, 0.093757
 1354, 0.093757
 1355, 0.093757
 1356, 0.093757
 1357, 0.093757
 1358, 0.093757
 1359, 0.093757
 1360, 0.093757
 1361, 0.093757
 1362, 0.093757
 1363, 0.093757
 1364, 0.093757
 1365, 0.093757
 1366, 0.093757
 1367, 0.093757
 1368, 0.093757
 1369, 0.093757
 1370, 0.093757
 1371, 0.093757
 1372, 0.093757
 1373, 0.093757
 1374, 0.093757
 1375, 0.093757
 1376, 0.093757
 1377, 0.093757
 1378, 0.093757
 1379, 0.093757
 1380, 0.093757
 1381, 0.093757
 1382, 0.093757
 1383, 0.093757
 1384, 0.093757
 1385, 0.093757
 1386, 0.093757
 1387, 0.093757
 1388, 0.093757
 1389, 0.093757
 1390, 0.093757
 1391, 0.093757
 1392, 0.093757
 1393, 0.093757
 1394, 0.093757
 1395, 0.093757
 1396, 0.093757
 1397, 0.093757
 1398, 0.093757
 1399, 0.093757
 1400, 0.093757
 1401, 0.093757
 1402, 0.093757
 1403, 0.093757
 1404, 0.093757
 1405, 0.093757
 1406, 0.093757
 1407, 0.093757
 1408, 0.093757
 1409, 0.093757
 1410, 0.093757
 1411, 0.093757
 1412, 0.093757
 1413, 0.093757
 1414, 0.093757
 1415, 0.093757
 1416, 0.093757
 1417, 0.093757
 1418, 0.097361
 1419, 0.097361
 1420, 0.097361
 1421, 0.097361
 1422, 0.097361
 1423, 0.097361
 1424, 0.097361
 1425, 0.097361
 1426, 0.097361
 1427, 0.097361
 1428, 0.097361
 1429, 0.097361
 1430, 0.097361
 1431, 0.097361
 1432, 0.097361
 1433, 0.097361
 1434, 0.097361
 1435, 0.097361
 1436, 0.097361
 1437, 0.097361
 1438, 0.097361
 1439, 0.097361
 1440, 0.097361
 1441, 0.097361
 1442, 0.097361
 1443, 0.097361
 1444, 0.097361
 1445, 0.097361
 1446, 0.097361
 1447, 0.097361
 1448, 0.097361
 1449, 0.097361
 1450, 0.097361
 1451, 0.097361
 1452, 0.097361
 1453, 0.097361
 1454, 0.097361
 1455, 0.097361
 1456, 0.097361
 1457, 0.097361
 1458, 0.097361
 1459, 0.097361
 1460, 0.097361
 1461, 0.097361
 1462, 0.097361
 1463, 0.097361
 1464, 0.097361
 1465, 0.097361
 1466, 0.097361
 1467, 0.097361
 1468, 0.097361
 1469, 0.097361
 1470, 0.097361
 1471, 0.097361
 1472, 0.097361
 1473, 0.097361
 1474, 0.097361
 1475, 0.097361
 1476, 0.097361
 1477, 0.097361
 1478, 0.097361
 1479, 0.097361
 1480, 0.097361
 1481, 0.097361
 1482, 0.097361
 1483, 0.097361
 1484, 0.097361
 1485, 0.097361
 1486, 0.097361
 1487, 0.097361
 1488, 0.097361
 1489, 0.097361
 1490, 0.097361
 1491, 0.097361
 1492, 0.097361
 1493, 0.097361
 1494, 0.097361
 1495, 0.097361
 1496, 0.097361
 1497, 0.097361
 1498, 0.097361
 1499, 0.097361
 1500, 0.097361
 1501, 0.097361
 1502, 0.097361
 1503, 0.097361
 1504, 0.097361
 1505, 0.097361
 1506, 0.097361
 1507, 0.097361
 1508, 0.097361
 1509, 0.097361
 1510, 0.097361
 1511, 0.097361
 1512, 0.097361
 1513, 0.097361
 1514, 0.097361
 1515, 0.097361
 1516, 0.097361
 1517, 0.097361
 1518, 0.097361
 1519, 0.097361
 1520, 0.097361
 1521, 0.097361
 1522, 0.097361
 1523, 0.097361
 1524, 0.097361
 1525, 0.097361
 1526, 0.097361
 1527, 0.099255
 1528, 0.099255
 1529, 0.099255
 1530, 0.099255
 1531, 0.099255
 1532, 0.099255
 1533, 0.099255
 1534, 0.099255
 1535, 0.099255
 1536, 0.099255
 1537, 0.099255
 1538, 0.099255
 1539, 0.099255
 1540, 0.099255
 1541, 0.099255
 1542, 0.099255
 1543, 0.099255
 1544, 0.099255
 1545, 0.099255
 1546, 0.099255
 1547, 0.099255
 1548, 0.099255
 1549, 0.099255
 1550, 0.099255
 1551, 0.099255
 1552, 0.099255
 1553, 0.099255
 1554, 0.099255
 1555, 0.099255
 1556, 0.099255
 1557, 0.099255
 1558, 0.099255
 1559, 0.099255
 1560, 0.099255
 1561, 0.099255
 1562, 0.099255
 1563, 0.099255
 1564, 0.099255
 1565, 0.099255
 1566, 0.099255
 1567, 0.099255
 1568, 0.099255
 1569, 0.099255
 1570, 0.099255
 1571, 0.099255
 1572, 0.099255
 1573, 0.099255
 1574, 0.099255
 1575, 0.099255
 1576, 0.099255
 1577, 0.099255
 1578, 0.099255
 1579, 0.099255
 1580, 0.099255
 1581, 0.099255
 1582, 0.099255
 1583, 0.099255
 1584, 0.099255
 1585, 0.099255
 1586, 0.099255
 1587, 0.099255
 1588, 0.099255
 1589, 0.099255
 1590, 0.099255
 1591, 0.099255
 1592, 0.099255
 1593, 0.099255
 1594, 0.099255
 1595, 0.099255
 1596, 0.099255
 1597, 0.099255
 1598, 0.099255
 1599, 0.099255
 1600, 0.099255
 1601, 0.099255
 1602, 0.099255
 1603, 0.099255
 1604, 0.099255
 1605, 0.099255
 1606, 0.099255
 1607, 0.099255
 1608, 0.099255
 1609, 0.099255
 1610, 0.099255
 1611, 0.099255
 1612, 0.099255
 1613, 0.099255
 1614, 0.099255
 1615, 0.099255
 1616, 0.099255
 1617, 0.099255
 1618, 0.099255
 1619, 0.099255
 1620, 0.099255
 1621, 0.099255
 1622, 0.099255
 1623, 0.099255
 1624, 0.099255
 1625, 0.099255
 1626, 0.099255
 1627, 0.099255
 1628, 0.099255
 1629, 0.099255
 1630, 0.099255
 1631, 0.099255
 1632, 0.099255
 1633, 0.099255
 1634, 0.099255
 1635, 0.099255
 1636, 0.100729
 1637, 0.100729
 1638, 0.100729
 1639, 0.100729
 1640, 0.100729
 1641, 0.100729
 1642, 0.100729
 1643, 0.100729
 1644, 0.100729
 1645, 0.100729
 1646, 0.100729
 1647, 0.100729
 1648, 0.100729
 1649, 0.100729
 1650, 0.100729
 1651, 0.100729
 1652, 0.100729
 1653, 0.100729
 1654, 0.100729
 1655, 0.100729
 1656, 0.100729
 1657, 0.100729
 1658, 0.100729
 1659, 0.100729
 1660, 0.100729
 1661, 0.100729
 1662, 0.100729
 1663, 0.100729
 1664, 0.100729
 1665, 0.100729
 1666, 0.100729
 1667, 0.100729
 1668, 0.100729
 1669, 0.100729
 1670, 0.100729
 1671, 0.100729
 1672, 0.100729
 1673, 0.100729
 1674, 0.100729
 1675, 0.100729
 1676, 0.100729
 1677, 0.100729
 1678, 0.100729
 1679, 0.100729
 1680, 0.100729
 1681, 0.100729
 1682, 0.100729
 1683, 0.100729
 1684, 0.100729
 1685, 0.100729
 1686, 0.100729
 1687, 0.100729
 1688, 0.100729
 1689, 0.100729
 1690, 0.100729
 1691, 0.100729
 1692, 0.100729
 1693, 0.100729
 1694, 0.100729
 1695, 0.100729
 1696, 0.100729
 1697, 0.100729
 1698, 0.100729
 1699, 0.100729
 1700, 0.100729
 1701, 0.100729
 1702, 0.100729
 1703, 0.100729
 1704, 0.100729
 1705, 0.100729
 1706, 0.100729
 1707, 0.100729
 1708, 0.100729
 1709, 0.100729
 1710, 0.100729
 1711, 0.100729
 1712, 0.100729
 1713, 0.100729
 1714, 0.100729
 1715, 0.100729
 1716, 0.100729
 1717, 0.100729
 1718, 0.100729
 1719, 0.100729
 1720, 0.100729
 1721, 0.100729
 1722, 0.100729
 1723, 0.100729
 1724, 0.100729
 1725, 0.100729
 1726, 0.100729
 1727, 0.100729
 1728, 0.100729
 1729, 0.100729
 1730, 0.100729
 1731, 0.100729
 1732, 0.100729
 1733, 0.100729
 1734, 0.100729
 1735, 0.100729
 1736, 0.100729
 1737, 0.100729
 1738, 0.100729
 1739, 0.100729
 1740, 0.100729
 1741, 0.100729
 1742, 0.100729
 1743, 0.100729
 1744, 0.100729
 1745, 0.102461
 1746, 0.102461
 1747, 0.102461
 1748, 0.102461
 1749, 0.102461
 1750, 0.102461
 1751, 0.102461
 1752, 0.102461
 1753, 0.102461
 1754, 0.102461
 1755, 0.102461
 1756, 0.102461
 1757, 0.102461
 1758, 0.102461
 1759, 0.102461
 1760, 0.102461
 1761, 0.102461
 1762, 0.102461
 1763, 0.102461
 1764, 0.102461
 1765, 0.102461
 1766, 0.102461
 1767, 0.102461
 1768, 0.102461
 1769, 0.102461
 1770, 0.102461
 1771, 0.102461
 1772, 0.102461
 1773, 0.102461
 1774, 0.102461
 1775, 0.102461
 1776, 0.102461
 1777, 0.102461
 1778, 0.102461
 1779, 0.102461
 1780, 0.102461
 1781, 0.102461
 1782, 0.102461
 1783, 0.102461
 1784, 0.102461
 1785, 0.102461
 1786, 0.102461
 1787, 0.102461
 1788, 0.102461
 1789, 0.102461
 1790, 0.102461
 1791, 0.102461
 1792, 0.102461
 1793, 0.102461
 1794, 0.102461
 1795, 0.102461
 1796, 0.102461
 1797, 0.102461
 1798, 0.102461
 1799, 0.102461
 1800, 0.102461
 1801, 0.102461
 1802, 0.102461
 1803, 0.102461
 1804, 0.102461
 1805, 0.102461
 1806, 0.102461
 1807, 0.102461
 1808, 0.102461
 1809, 0.102461
 1810, 0.102461
 1811, 0.102461
 1812, 0.102461
 1813, 0.102461
 1814, 0.102461
 1815, 0.102461
 1816, 0.102461
 1817, 0.102461
 1818, 0.102461
 1819, 0.102461
 1820, 0.102461
 1821, 0.102461
 1822, 0.102461
 1823, 0.102461
 1824, 0.102461
 1825, 0.102461
 1826, 0.102461
 1827, 0.102461
 1828, 0.102461
 1829, 0.102461
 1830, 0.102461
 1831, 0.102461
 1832, 0.102461
 1833, 0.102461
 1834, 0.102461
 1835, 0.102461
 1836, 0.102461
 1837, 0.102461
 1838, 0.102461
 1839, 0.102461
 1840, 0.102461
 1841, 0.102461
 1842, 0.102461
 1843, 0.102461
 1844, 0.102461
 1845, 0.102461
 1846, 0.102461
 1847, 0.102461
 1848, 0.102461
 1849, 0.102461
 1850, 0.102461
 1851, 0.102461
 1852, 0.102461
 1853, 0.102461
 1854, 0.104081
 1855, 0.104081
 1856, 0.104081
 1857, 0.104081
 1858, 0.104081
 1859, 0.104081
 1860, 0.104081
 1861, 0.104081
 1862, 0.104081
 1863, 0.104081
 1864, 0.104081
 1865, 0.104081
 1866, 0.104081
 1867, 0.104081
 1868, 0.104081
 1869, 0.104081
 1870, 0.104081
 1871, 0.104081
 1872, 0.104081
 1873, 0.104081
 1874, 0.104081
 1875, 0.104081
 1876, 0.104081
 1877, 0.104081
 1878, 0.104081
 1879, 0.104081
 1880, 0.104081
 1881, 0.104081
 1882, 0.104081
 1883, 0.104081
 1884, 0.104081
 1885, 0.104081
 1886, 0.104081
 1887, 0.104081
 1888, 0.104081
 1889, 0.104081
 1890, 0.104081
 1891, 0.104081
 1892, 0.104081
 1893, 0.104081
 1894, 0.104081
 1895, 0.104081
 1896, 0.104081
 1897, 0.104081
 1898, 0.104081
 1899, 0.104081
 1900, 0.104081
 1901, 0.104081
 1902, 0.104081
 1903, 0.104081
 1904, 0.104081
 1905, 0.104081
 1906, 0.104081
 1907, 0.104081
 1908, 0.104081
 1909, 0.104081
 1910, 0.104081
 1911, 0.104081
 1912, 0.104081
 1913, 0.104081
 1914, 0.104081
 1915, 0.104081
 1916, 0.104081
 1917, 0.104081
 1918, 0.104081
 1919, 0.104081
 1920, 0.104081
 1921, 0.104081
 1922, 0.104081
 1923, 0.104081
 1924, 0.104081
 1925, 0.104081
 1926, 0.104081
 1927, 0.104081
 1928, 0.104081
 1929, 0.104081
 1930, 0.104081
 1931, 0.104081
 1932, 0.104081
 1933, 0.104081
 1934, 0.104081
 1935, 0.104081
 1936, 0.104081
 1937, 0.104081
 1938, 0.104081
 1939, 0.104081
 1940, 0.104081
 1941, 0.104081
 1942, 0.104081
 1943, 0.104081
 1944, 0.104081
 1945, 0.104081
 1946, 0.104081
 1947, 0.104081
 1948, 0.104081
 1949, 0.104081
 1950, 0.104081
 1951, 0.104081
 1952, 0.104081
 1953, 0.104081
 1954, 0.104081
 1955, 0.104081
 1956, 0.104081
 1957, 0.104081
 1958, 0.104081
 1959, 0.104081
 1960, 0.104081
 1961, 0.104081
 1962, 0.104081
 1963, 0.104248
 1964, 0.104248
 1965, 0.104248
 1966, 0.104248
 1967, 0.104248
 1968, 0.104248
 1969, 0.104248
 1970, 0.104248
 1971, 0.104248
 1972, 0.104248
 1973, 0.104248
 1974, 0.104248
 1975, 0.104248
 1976, 0.104248
 1977, 0.104248
 1978, 0.104248
 1979, 0.104248
 1980, 0.104248
 1981, 0.104248
 1982, 0.104248
 1983, 0.104248
 1984, 0.104248
 1985, 0.104248
 1986, 0.104248
 1987, 0.104248
 1988, 0.104248
 1989, 0.104248
 1990, 0.104248
 1991, 0.104248
 1992, 0.104248
 1993, 0.104248
 1994, 0.104248
 1995, 0.104248
 1996, 0.104248
 1997, 0.104248
 1998, 0.104248
 1999, 0.104248
 2000, 0.104248
 2001, 0.104248
 2002, 0.104248
 2003, 0.104248
 2004, 0.104248
 2005, 0.104248
 2006, 0.104248
 2007, 0.104248
 2008, 0.104248
 2009, 0.104248
 2010, 0.104248
 2011, 0.104248
 2012, 0.104248
 2013, 0.104248
 2014, 0.104248
 2015, 0.104248
 2016, 0.104248
 2017, 0.104248
 2018, 0.104248
 2019, 0.104248
 2020, 0.104248
 2021, 0.104248
 2022, 0.104248
 2023, 0.104248
 2024, 0.104248
 2025, 0.104248
 2026, 0.104248
 2027, 0.104248
 2028, 0.104248
 2029, 0.104248
 2030, 0.104248
 2031, 0.104248
 2032, 0.104248
 2033, 0.104248
 2034, 0.104248
 2035, 0.104248
 2036, 0.104248
 2037, 0.104248
 2038, 0.104248
 2039, 0.104248
 2040, 0.104248
 2041, 0.104248
 2042, 0.104248
 2043, 0.104248
 2044, 0.104248
 2045, 0.104248
 2046, 0.104248
 2047, 0.104248
 2048, 0.104248
 2049, 0.104248
 2050, 0.104248
 2051, 0.104248
 2052, 0.104248
 2053, 0.104248
 2054, 0.104248
 2055, 0.104248
 2056, 0.104248
 2057, 0.104248
 2058, 0.104248
 2059, 0.104248
 2060, 0.104248
 2061, 0.104248
 2062, 0.104248
 2063, 0.104248
 2064, 0.104248
 2065, 0.104248
 2066, 0.104248
 2067, 0.104248
 2068, 0.104248
 2069, 0.104248
 2070, 0.104248
 2071, 0.104248
*OUTPUT, FIELD
*NODE OUTPUT
 U
*ELEMENT OUTPUT, POSITION=CENTROID
 S, SDV, COORD
*END STEP
