*HEADING
 A3 MMS: u_x=alpha sin(pi X/L), body-force-driven, C3D8 (order of accuracy)
*NODE
 1, 0.00000000, 0.000000, 0.000000
 2, 0.03125000, 0.000000, 0.000000
 3, 0.06250000, 0.000000, 0.000000
 4, 0.09375000, 0.000000, 0.000000
 5, 0.12500000, 0.000000, 0.000000
 6, 0.15625000, 0.000000, 0.000000
 7, 0.18750000, 0.000000, 0.000000
 8, 0.21875000, 0.000000, 0.000000
 9, 0.25000000, 0.000000, 0.000000
 10, 0.28125000, 0.000000, 0.000000
 11, 0.31250000, 0.000000, 0.000000
 12, 0.34375000, 0.000000, 0.000000
 13, 0.37500000, 0.000000, 0.000000
 14, 0.40625000, 0.000000, 0.000000
 15, 0.43750000, 0.000000, 0.000000
 16, 0.46875000, 0.000000, 0.000000
 17, 0.50000000, 0.000000, 0.000000
 18, 0.53125000, 0.000000, 0.000000
 19, 0.56250000, 0.000000, 0.000000
 20, 0.59375000, 0.000000, 0.000000
 21, 0.62500000, 0.000000, 0.000000
 22, 0.65625000, 0.000000, 0.000000
 23, 0.68750000, 0.000000, 0.000000
 24, 0.71875000, 0.000000, 0.000000
 25, 0.75000000, 0.000000, 0.000000
 26, 0.78125000, 0.000000, 0.000000
 27, 0.81250000, 0.000000, 0.000000
 28, 0.84375000, 0.000000, 0.000000
 29, 0.87500000, 0.000000, 0.000000
 30, 0.90625000, 0.000000, 0.000000
 31, 0.93750000, 0.000000, 0.000000
 32, 0.96875000, 0.000000, 0.000000
 33, 1.00000000, 0.000000, 0.000000
 34, 0.00000000, 1.000000, 0.000000
 35, 0.03125000, 1.000000, 0.000000
 36, 0.06250000, 1.000000, 0.000000
 37, 0.09375000, 1.000000, 0.000000
 38, 0.12500000, 1.000000, 0.000000
 39, 0.15625000, 1.000000, 0.000000
 40, 0.18750000, 1.000000, 0.000000
 41, 0.21875000, 1.000000, 0.000000
 42, 0.25000000, 1.000000, 0.000000
 43, 0.28125000, 1.000000, 0.000000
 44, 0.31250000, 1.000000, 0.000000
 45, 0.34375000, 1.000000, 0.000000
 46, 0.37500000, 1.000000, 0.000000
 47, 0.40625000, 1.000000, 0.000000
 48, 0.43750000, 1.000000, 0.000000
 49, 0.46875000, 1.000000, 0.000000
 50, 0.50000000, 1.000000, 0.000000
 51, 0.53125000, 1.000000, 0.000000
 52, 0.56250000, 1.000000, 0.000000
 53, 0.59375000, 1.000000, 0.000000
 54, 0.62500000, 1.000000, 0.000000
 55, 0.65625000, 1.000000, 0.000000
 56, 0.68750000, 1.000000, 0.000000
 57, 0.71875000, 1.000000, 0.000000
 58, 0.75000000, 1.000000, 0.000000
 59, 0.78125000, 1.000000, 0.000000
 60, 0.81250000, 1.000000, 0.000000
 61, 0.84375000, 1.000000, 0.000000
 62, 0.87500000, 1.000000, 0.000000
 63, 0.90625000, 1.000000, 0.000000
 64, 0.93750000, 1.000000, 0.000000
 65, 0.96875000, 1.000000, 0.000000
 66, 1.00000000, 1.000000, 0.000000
 67, 0.00000000, 0.000000, 1.000000
 68, 0.03125000, 0.000000, 1.000000
 69, 0.06250000, 0.000000, 1.000000
 70, 0.09375000, 0.000000, 1.000000
 71, 0.12500000, 0.000000, 1.000000
 72, 0.15625000, 0.000000, 1.000000
 73, 0.18750000, 0.000000, 1.000000
 74, 0.21875000, 0.000000, 1.000000
 75, 0.25000000, 0.000000, 1.000000
 76, 0.28125000, 0.000000, 1.000000
 77, 0.31250000, 0.000000, 1.000000
 78, 0.34375000, 0.000000, 1.000000
 79, 0.37500000, 0.000000, 1.000000
 80, 0.40625000, 0.000000, 1.000000
 81, 0.43750000, 0.000000, 1.000000
 82, 0.46875000, 0.000000, 1.000000
 83, 0.50000000, 0.000000, 1.000000
 84, 0.53125000, 0.000000, 1.000000
 85, 0.56250000, 0.000000, 1.000000
 86, 0.59375000, 0.000000, 1.000000
 87, 0.62500000, 0.000000, 1.000000
 88, 0.65625000, 0.000000, 1.000000
 89, 0.68750000, 0.000000, 1.000000
 90, 0.71875000, 0.000000, 1.000000
 91, 0.75000000, 0.000000, 1.000000
 92, 0.78125000, 0.000000, 1.000000
 93, 0.81250000, 0.000000, 1.000000
 94, 0.84375000, 0.000000, 1.000000
 95, 0.87500000, 0.000000, 1.000000
 96, 0.90625000, 0.000000, 1.000000
 97, 0.93750000, 0.000000, 1.000000
 98, 0.96875000, 0.000000, 1.000000
 99, 1.00000000, 0.000000, 1.000000
 100, 0.00000000, 1.000000, 1.000000
 101, 0.03125000, 1.000000, 1.000000
 102, 0.06250000, 1.000000, 1.000000
 103, 0.09375000, 1.000000, 1.000000
 104, 0.12500000, 1.000000, 1.000000
 105, 0.15625000, 1.000000, 1.000000
 106, 0.18750000, 1.000000, 1.000000
 107, 0.21875000, 1.000000, 1.000000
 108, 0.25000000, 1.000000, 1.000000
 109, 0.28125000, 1.000000, 1.000000
 110, 0.31250000, 1.000000, 1.000000
 111, 0.34375000, 1.000000, 1.000000
 112, 0.37500000, 1.000000, 1.000000
 113, 0.40625000, 1.000000, 1.000000
 114, 0.43750000, 1.000000, 1.000000
 115, 0.46875000, 1.000000, 1.000000
 116, 0.50000000, 1.000000, 1.000000
 117, 0.53125000, 1.000000, 1.000000
 118, 0.56250000, 1.000000, 1.000000
 119, 0.59375000, 1.000000, 1.000000
 120, 0.62500000, 1.000000, 1.000000
 121, 0.65625000, 1.000000, 1.000000
 122, 0.68750000, 1.000000, 1.000000
 123, 0.71875000, 1.000000, 1.000000
 124, 0.75000000, 1.000000, 1.000000
 125, 0.78125000, 1.000000, 1.000000
 126, 0.81250000, 1.000000, 1.000000
 127, 0.84375000, 1.000000, 1.000000
 128, 0.87500000, 1.000000, 1.000000
 129, 0.90625000, 1.000000, 1.000000
 130, 0.93750000, 1.000000, 1.000000
 131, 0.96875000, 1.000000, 1.000000
 132, 1.00000000, 1.000000, 1.000000
*ELEMENT, TYPE=C3D8, ELSET=ALL
 1, 1,2,35,34,67,68,101,100
 2, 2,3,36,35,68,69,102,101
 3, 3,4,37,36,69,70,103,102
 4, 4,5,38,37,70,71,104,103
 5, 5,6,39,38,71,72,105,104
 6, 6,7,40,39,72,73,106,105
 7, 7,8,41,40,73,74,107,106
 8, 8,9,42,41,74,75,108,107
 9, 9,10,43,42,75,76,109,108
 10, 10,11,44,43,76,77,110,109
 11, 11,12,45,44,77,78,111,110
 12, 12,13,46,45,78,79,112,111
 13, 13,14,47,46,79,80,113,112
 14, 14,15,48,47,80,81,114,113
 15, 15,16,49,48,81,82,115,114
 16, 16,17,50,49,82,83,116,115
 17, 17,18,51,50,83,84,117,116
 18, 18,19,52,51,84,85,118,117
 19, 19,20,53,52,85,86,119,118
 20, 20,21,54,53,86,87,120,119
 21, 21,22,55,54,87,88,121,120
 22, 22,23,56,55,88,89,122,121
 23, 23,24,57,56,89,90,123,122
 24, 24,25,58,57,90,91,124,123
 25, 25,26,59,58,91,92,125,124
 26, 26,27,60,59,92,93,126,125
 27, 27,28,61,60,93,94,127,126
 28, 28,29,62,61,94,95,128,127
 29, 29,30,63,62,95,96,129,128
 30, 30,31,64,63,96,97,130,129
 31, 31,32,65,64,97,98,131,130
 32, 32,33,66,65,98,99,132,131
*SOLID SECTION, ELSET=ALL, MATERIAL=BIOFILM
*MATERIAL, NAME=BIOFILM
*USER MATERIAL, CONSTANTS=2
 5000., 0.45
*DEPVAR
 1
*ELSET, ELSET=E1
 1
*ELSET, ELSET=E2
 2
*ELSET, ELSET=E3
 3
*ELSET, ELSET=E4
 4
*ELSET, ELSET=E5
 5
*ELSET, ELSET=E6
 6
*ELSET, ELSET=E7
 7
*ELSET, ELSET=E8
 8
*ELSET, ELSET=E9
 9
*ELSET, ELSET=E10
 10
*ELSET, ELSET=E11
 11
*ELSET, ELSET=E12
 12
*ELSET, ELSET=E13
 13
*ELSET, ELSET=E14
 14
*ELSET, ELSET=E15
 15
*ELSET, ELSET=E16
 16
*ELSET, ELSET=E17
 17
*ELSET, ELSET=E18
 18
*ELSET, ELSET=E19
 19
*ELSET, ELSET=E20
 20
*ELSET, ELSET=E21
 21
*ELSET, ELSET=E22
 22
*ELSET, ELSET=E23
 23
*ELSET, ELSET=E24
 24
*ELSET, ELSET=E25
 25
*ELSET, ELSET=E26
 26
*ELSET, ELSET=E27
 27
*ELSET, ELSET=E28
 28
*ELSET, ELSET=E29
 29
*ELSET, ELSET=E30
 30
*ELSET, ELSET=E31
 31
*ELSET, ELSET=E32
 32
*NSET, NSET=ALLN
 1,2,3,4,5,6,7,8,9,10,11,12
 13,14,15,16,17,18,19,20,21,22,23,24
 25,26,27,28,29,30,31,32,33,34,35,36
 37,38,39,40,41,42,43,44,45,46,47,48
 49,50,51,52,53,54,55,56,57,58,59,60
 61,62,63,64,65,66,67,68,69,70,71,72
 73,74,75,76,77,78,79,80,81,82,83,84
 85,86,87,88,89,90,91,92,93,94,95,96
 97,98,99,100,101,102,103,104,105,106,107,108
 109,110,111,112,113,114,115,116,117,118,119,120
 121,122,123,124,125,126,127,128,129,130,131,132
*NSET, NSET=XEND
 1,34,67,100,33,66,99,132
*BOUNDARY
 ALLN, 2, 3
 XEND, 1, 1
*STEP, NLGEOM=YES, INC=50
 body-force-driven manufactured solution
*STATIC
 0.1, 1.0, 1.0E-4, 0.1
*DLOAD
 E1, BX, 9.1845928956e-01
 E2, BX, 2.7465326036e+00
 E3, BX, 4.5481553073e+00
 E4, BX, 6.3059767891e+00
 E5, BX, 8.0030682673e+00
 E6, BX, 9.6230858231e+00
 E7, BX, 1.1150427802e+01
 E8, BX, 1.2570385065e+01
 E9, BX, 1.3869282649e+01
 E10, BX, 1.5034611459e+01
 E11, BX, 1.6055148742e+01
 E12, BX, 1.6921066166e+01
 E13, BX, 1.7624024473e+01
 E14, BX, 1.8157253790e+01
 E15, BX, 1.8515618827e+01
 E16, BX, 1.8695668333e+01
 E17, BX, 1.8695668333e+01
 E18, BX, 1.8515618827e+01
 E19, BX, 1.8157253790e+01
 E20, BX, 1.7624024473e+01
 E21, BX, 1.6921066166e+01
 E22, BX, 1.6055148742e+01
 E23, BX, 1.5034611459e+01
 E24, BX, 1.3869282649e+01
 E25, BX, 1.2570385065e+01
 E26, BX, 1.1150427802e+01
 E27, BX, 9.6230858231e+00
 E28, BX, 8.0030682673e+00
 E29, BX, 6.3059767891e+00
 E30, BX, 4.5481553073e+00
 E31, BX, 2.7465326036e+00
 E32, BX, 9.1845928956e-01
*OUTPUT, FIELD
*NODE OUTPUT
 U
*ELEMENT OUTPUT, POSITION=CENTROID
 S
*END STEP
