*HEADING
 A3 MMS: u_x=alpha sin(pi X/L), body-force-driven, C3D8 (order of accuracy)
*NODE
 1, 0.00000000, 0.000000, 0.000000
 2, 0.25000000, 0.000000, 0.000000
 3, 0.50000000, 0.000000, 0.000000
 4, 0.75000000, 0.000000, 0.000000
 5, 1.00000000, 0.000000, 0.000000
 6, 0.00000000, 1.000000, 0.000000
 7, 0.25000000, 1.000000, 0.000000
 8, 0.50000000, 1.000000, 0.000000
 9, 0.75000000, 1.000000, 0.000000
 10, 1.00000000, 1.000000, 0.000000
 11, 0.00000000, 0.000000, 1.000000
 12, 0.25000000, 0.000000, 1.000000
 13, 0.50000000, 0.000000, 1.000000
 14, 0.75000000, 0.000000, 1.000000
 15, 1.00000000, 0.000000, 1.000000
 16, 0.00000000, 1.000000, 1.000000
 17, 0.25000000, 1.000000, 1.000000
 18, 0.50000000, 1.000000, 1.000000
 19, 0.75000000, 1.000000, 1.000000
 20, 1.00000000, 1.000000, 1.000000
*ELEMENT, TYPE=C3D8, ELSET=ALL
 1, 1,2,7,6,11,12,17,16
 2, 2,3,8,7,12,13,18,17
 3, 3,4,9,8,13,14,19,18
 4, 4,5,10,9,14,15,20,19
*SOLID SECTION, ELSET=ALL, MATERIAL=BIOFILM
*MATERIAL, NAME=BIOFILM
*USER MATERIAL, CONSTANTS=2
 5000., 0.45
*DEPVAR
 1
*ELSET, ELSET=E1
 1
*ELSET, ELSET=E2
 2
*ELSET, ELSET=E3
 3
*ELSET, ELSET=E4
 4
*NSET, NSET=ALLN
 1,2,3,4,5,6,7,8,9,10,11,12
 13,14,15,16,17,18,19,20
*NSET, NSET=XEND
 1,6,11,16,5,10,15,20
*BOUNDARY
 ALLN, 2, 3
 XEND, 1, 1
*STEP, NLGEOM=YES, INC=50
 body-force-driven manufactured solution
*STATIC
 0.1, 1.0, 1.0E-4, 0.1
*DLOAD
 E1, BX, 7.1631508571e+00
 E2, BX, 1.7293375949e+01
 E3, BX, 1.7293375949e+01
 E4, BX, 7.1631508571e+00
*OUTPUT, FIELD
*NODE OUTPUT
 U
*ELEMENT OUTPUT, POSITION=CENTROID
 S
*END STEP
