*HEADING
 A3 MMS: u_x=alpha sin(pi X/L), body-force-driven, C3D8 (order of accuracy)
*NODE
 1, 0.00000000, 0.000000, 0.000000
 2, 0.12500000, 0.000000, 0.000000
 3, 0.25000000, 0.000000, 0.000000
 4, 0.37500000, 0.000000, 0.000000
 5, 0.50000000, 0.000000, 0.000000
 6, 0.62500000, 0.000000, 0.000000
 7, 0.75000000, 0.000000, 0.000000
 8, 0.87500000, 0.000000, 0.000000
 9, 1.00000000, 0.000000, 0.000000
 10, 0.00000000, 1.000000, 0.000000
 11, 0.12500000, 1.000000, 0.000000
 12, 0.25000000, 1.000000, 0.000000
 13, 0.37500000, 1.000000, 0.000000
 14, 0.50000000, 1.000000, 0.000000
 15, 0.62500000, 1.000000, 0.000000
 16, 0.75000000, 1.000000, 0.000000
 17, 0.87500000, 1.000000, 0.000000
 18, 1.00000000, 1.000000, 0.000000
 19, 0.00000000, 0.000000, 1.000000
 20, 0.12500000, 0.000000, 1.000000
 21, 0.25000000, 0.000000, 1.000000
 22, 0.37500000, 0.000000, 1.000000
 23, 0.50000000, 0.000000, 1.000000
 24, 0.62500000, 0.000000, 1.000000
 25, 0.75000000, 0.000000, 1.000000
 26, 0.87500000, 0.000000, 1.000000
 27, 1.00000000, 0.000000, 1.000000
 28, 0.00000000, 1.000000, 1.000000
 29, 0.12500000, 1.000000, 1.000000
 30, 0.25000000, 1.000000, 1.000000
 31, 0.37500000, 1.000000, 1.000000
 32, 0.50000000, 1.000000, 1.000000
 33, 0.62500000, 1.000000, 1.000000
 34, 0.75000000, 1.000000, 1.000000
 35, 0.87500000, 1.000000, 1.000000
 36, 1.00000000, 1.000000, 1.000000
*ELEMENT, TYPE=C3D8, ELSET=ALL
 1, 1,2,11,10,19,20,29,28
 2, 2,3,12,11,20,21,30,29
 3, 3,4,13,12,21,22,31,30
 4, 4,5,14,13,22,23,32,31
 5, 5,6,15,14,23,24,33,32
 6, 6,7,16,15,24,25,34,33
 7, 7,8,17,16,25,26,35,34
 8, 8,9,18,17,26,27,36,35
*SOLID SECTION, ELSET=ALL, MATERIAL=BIOFILM
*MATERIAL, NAME=BIOFILM
*USER MATERIAL, CONSTANTS=2
 5000., 0.45
*DEPVAR
 1
*ELSET, ELSET=E1
 1
*ELSET, ELSET=E2
 2
*ELSET, ELSET=E3
 3
*ELSET, ELSET=E4
 4
*ELSET, ELSET=E5
 5
*ELSET, ELSET=E6
 6
*ELSET, ELSET=E7
 7
*ELSET, ELSET=E8
 8
*NSET, NSET=ALLN
 1,2,3,4,5,6,7,8,9,10,11,12
 13,14,15,16,17,18,19,20,21,22,23,24
 25,26,27,28,29,30,31,32,33,34,35,36
*NSET, NSET=XEND
 1,10,19,28,9,18,27,36
*BOUNDARY
 ALLN, 2, 3
 XEND, 1, 1
*STEP, NLGEOM=YES, INC=50
 body-force-driven manufactured solution
*STATIC
 0.1, 1.0, 1.0E-4, 0.1
*DLOAD
 E1, BX, 3.6517426394e+00
 E2, BX, 1.0399283205e+01
 E3, BX, 1.5563627171e+01
 E4, BX, 1.8358549986e+01
 E5, BX, 1.8358549986e+01
 E6, BX, 1.5563627171e+01
 E7, BX, 1.0399283205e+01
 E8, BX, 3.6517426394e+00
*OUTPUT, FIELD
*NODE OUTPUT
 U
*ELEMENT OUTPUT, POSITION=CENTROID
 S
*END STEP
