*HEADING
 A3 MMS: u_x=alpha sin(pi X/L), body-force-driven, C3D8 (order of accuracy)
*NODE
 1, 0.00000000, 0.000000, 0.000000
 2, 0.06250000, 0.000000, 0.000000
 3, 0.12500000, 0.000000, 0.000000
 4, 0.18750000, 0.000000, 0.000000
 5, 0.25000000, 0.000000, 0.000000
 6, 0.31250000, 0.000000, 0.000000
 7, 0.37500000, 0.000000, 0.000000
 8, 0.43750000, 0.000000, 0.000000
 9, 0.50000000, 0.000000, 0.000000
 10, 0.56250000, 0.000000, 0.000000
 11, 0.62500000, 0.000000, 0.000000
 12, 0.68750000, 0.000000, 0.000000
 13, 0.75000000, 0.000000, 0.000000
 14, 0.81250000, 0.000000, 0.000000
 15, 0.87500000, 0.000000, 0.000000
 16, 0.93750000, 0.000000, 0.000000
 17, 1.00000000, 0.000000, 0.000000
 18, 0.00000000, 1.000000, 0.000000
 19, 0.06250000, 1.000000, 0.000000
 20, 0.12500000, 1.000000, 0.000000
 21, 0.18750000, 1.000000, 0.000000
 22, 0.25000000, 1.000000, 0.000000
 23, 0.31250000, 1.000000, 0.000000
 24, 0.37500000, 1.000000, 0.000000
 25, 0.43750000, 1.000000, 0.000000
 26, 0.50000000, 1.000000, 0.000000
 27, 0.56250000, 1.000000, 0.000000
 28, 0.62500000, 1.000000, 0.000000
 29, 0.68750000, 1.000000, 0.000000
 30, 0.75000000, 1.000000, 0.000000
 31, 0.81250000, 1.000000, 0.000000
 32, 0.87500000, 1.000000, 0.000000
 33, 0.93750000, 1.000000, 0.000000
 34, 1.00000000, 1.000000, 0.000000
 35, 0.00000000, 0.000000, 1.000000
 36, 0.06250000, 0.000000, 1.000000
 37, 0.12500000, 0.000000, 1.000000
 38, 0.18750000, 0.000000, 1.000000
 39, 0.25000000, 0.000000, 1.000000
 40, 0.31250000, 0.000000, 1.000000
 41, 0.37500000, 0.000000, 1.000000
 42, 0.43750000, 0.000000, 1.000000
 43, 0.50000000, 0.000000, 1.000000
 44, 0.56250000, 0.000000, 1.000000
 45, 0.62500000, 0.000000, 1.000000
 46, 0.68750000, 0.000000, 1.000000
 47, 0.75000000, 0.000000, 1.000000
 48, 0.81250000, 0.000000, 1.000000
 49, 0.87500000, 0.000000, 1.000000
 50, 0.93750000, 0.000000, 1.000000
 51, 1.00000000, 0.000000, 1.000000
 52, 0.00000000, 1.000000, 1.000000
 53, 0.06250000, 1.000000, 1.000000
 54, 0.12500000, 1.000000, 1.000000
 55, 0.18750000, 1.000000, 1.000000
 56, 0.25000000, 1.000000, 1.000000
 57, 0.31250000, 1.000000, 1.000000
 58, 0.37500000, 1.000000, 1.000000
 59, 0.43750000, 1.000000, 1.000000
 60, 0.50000000, 1.000000, 1.000000
 61, 0.56250000, 1.000000, 1.000000
 62, 0.62500000, 1.000000, 1.000000
 63, 0.68750000, 1.000000, 1.000000
 64, 0.75000000, 1.000000, 1.000000
 65, 0.81250000, 1.000000, 1.000000
 66, 0.87500000, 1.000000, 1.000000
 67, 0.93750000, 1.000000, 1.000000
 68, 1.00000000, 1.000000, 1.000000
*ELEMENT, TYPE=C3D8, ELSET=ALL
 1, 1,2,19,18,35,36,53,52
 2, 2,3,20,19,36,37,54,53
 3, 3,4,21,20,37,38,55,54
 4, 4,5,22,21,38,39,56,55
 5, 5,6,23,22,39,40,57,56
 6, 6,7,24,23,40,41,58,57
 7, 7,8,25,24,41,42,59,58
 8, 8,9,26,25,42,43,60,59
 9, 9,10,27,26,43,44,61,60
 10, 10,11,28,27,44,45,62,61
 11, 11,12,29,28,45,46,63,62
 12, 12,13,30,29,46,47,64,63
 13, 13,14,31,30,47,48,65,64
 14, 14,15,32,31,48,49,66,65
 15, 15,16,33,32,49,50,67,66
 16, 16,17,34,33,50,51,68,67
*SOLID SECTION, ELSET=ALL, MATERIAL=BIOFILM
*MATERIAL, NAME=BIOFILM
*USER MATERIAL, CONSTANTS=2
 5000., 0.45
*DEPVAR
 1
*ELSET, ELSET=E1
 1
*ELSET, ELSET=E2
 2
*ELSET, ELSET=E3
 3
*ELSET, ELSET=E4
 4
*ELSET, ELSET=E5
 5
*ELSET, ELSET=E6
 6
*ELSET, ELSET=E7
 7
*ELSET, ELSET=E8
 8
*ELSET, ELSET=E9
 9
*ELSET, ELSET=E10
 10
*ELSET, ELSET=E11
 11
*ELSET, ELSET=E12
 12
*ELSET, ELSET=E13
 13
*ELSET, ELSET=E14
 14
*ELSET, ELSET=E15
 15
*ELSET, ELSET=E16
 16
*NSET, NSET=ALLN
 1,2,3,4,5,6,7,8,9,10,11,12
 13,14,15,16,17,18,19,20,21,22,23,24
 25,26,27,28,29,30,31,32,33,34,35,36
 37,38,39,40,41,42,43,44,45,46,47,48
 49,50,51,52,53,54,55,56,57,58,59,60
 61,62,63,64,65,66,67,68
*NSET, NSET=XEND
 1,18,35,52,17,34,51,68
*BOUNDARY
 ALLN, 2, 3
 XEND, 1, 1
*STEP, NLGEOM=YES, INC=50
 body-force-driven manufactured solution
*STATIC
 0.1, 1.0, 1.0E-4, 0.1
*DLOAD
 E1, BX, 1.8347059302e+00
 E2, BX, 5.4336110707e+00
 E3, BX, 8.8237055850e+00
 E4, BX, 1.1874710042e+01
 E5, BX, 1.4469376051e+01
 E6, BX, 1.6507992054e+01
 E7, BX, 1.7912215179e+01
 E8, BX, 1.8628081921e+01
 E9, BX, 1.8628081921e+01
 E10, BX, 1.7912215179e+01
 E11, BX, 1.6507992054e+01
 E12, BX, 1.4469376051e+01
 E13, BX, 1.1874710042e+01
 E14, BX, 8.8237055850e+00
 E15, BX, 5.4336110707e+00
 E16, BX, 1.8347059302e+00
*OUTPUT, FIELD
*NODE OUTPUT
 U
*ELEMENT OUTPUT, POSITION=CENTROID
 S
*END STEP
