*HEADING
 Single C3D8 element — UMAT bridge smoke test (uniaxial tension in x)
**
** Unit cube, 8 nodes. Material handled by umat_socket.f -> Python server.
** PROPS: E=5000, nu=0.45 (placeholder; NSP server ignores/overrides).
**
*NODE
 1, 0.0, 0.0, 0.0
 2, 1.0, 0.0, 0.0
 3, 1.0, 1.0, 0.0
 4, 0.0, 1.0, 0.0
 5, 0.0, 0.0, 1.0
 6, 1.0, 0.0, 1.0
 7, 1.0, 1.0, 1.0
 8, 0.0, 1.0, 1.0
*ELEMENT, TYPE=C3D8, ELSET=ONE
 1, 1,2,3,4,5,6,7,8
*SOLID SECTION, ELSET=ONE, MATERIAL=BIOFILM
*MATERIAL, NAME=BIOFILM
*USER MATERIAL, CONSTANTS=2
 5000., 0.45
** STATEV size: 1 for the placeholder server (umat_server.py),
**              12 for the NSP-backed server (umat_server_nsp.py) = [phi_1..5,phi_0,psi_1..5,gamma]
*DEPVAR
 12
**
** BCs: fix x=0 face in x, pin rigid-body modes, pull x=1 face in +x
*BOUNDARY
 1, 1,3
 4, 1, 1
 5, 1, 1
 8, 1, 1
 1, 2, 2
 2, 2, 2
*STEP, NLGEOM=NO, INC=10
 Uniaxial tension
*STATIC
 0.1, 1.0, 0.01, 0.1
*BOUNDARY
 2, 1, 1, 0.01
 3, 1, 1, 0.01
 6, 1, 1, 0.01
 7, 1, 1, 0.01
*OUTPUT, FIELD
*ELEMENT OUTPUT
 S, E, SDV
*END STEP
