*HEADING
 Single C3D8 — finite-strain NSP growth (NLGEOM). No external load:
 the composition-driven growth eigenstrain (Fg) deforms the element.
**
** Bottom face z=0 bonded in z; rigid-body pinned; lateral & top free.
** Biofilm thickens upward as P. gingivalis grows (cond DH).
**
*NODE
 1, 0.0, 0.0, 0.0
 2, 1.0, 0.0, 0.0
 3, 1.0, 1.0, 0.0
 4, 0.0, 1.0, 0.0
 5, 0.0, 0.0, 1.0
 6, 1.0, 0.0, 1.0
 7, 1.0, 1.0, 1.0
 8, 0.0, 1.0, 1.0
*ELEMENT, TYPE=C3D8, ELSET=ONE
 1, 1,2,3,4,5,6,7,8
*SOLID SECTION, ELSET=ONE, MATERIAL=BIOFILM
*MATERIAL, NAME=BIOFILM
*USER MATERIAL, CONSTANTS=2
 5000., 0.45
** SDV1 = NSP step counter (tabulated server advances phi_Pg per converged increment)
*DEPVAR
 1
**
** Bottom face (z=0) bonded in z; pin rigid-body modes; lateral & top free.
*BOUNDARY
 1, 1, 3
 2, 2, 3
 3, 3, 3
 4, 1, 1
 4, 3, 3
*STEP, NLGEOM=YES, INC=100
 Composition-driven growth (lambda_z ramps 1.0 -> 1.3 via the NSP trajectory)
*STATIC
 0.05, 1.0, 1.0E-4, 0.05
*OUTPUT, FIELD
*NODE OUTPUT
 U
*ELEMENT OUTPUT
 S, E, SDV
*END STEP
