*HEADING
 Socket-free growth UMAT (umat_growth_phi.f) -- 1-element free swelling.
 phi_Pg delivered as predefined FIELD variable 1, ramped 0 -> 0.0953.
 DH calibration (beta=17.1806, ic=-1.3372) -> lam_z = 1.30 at phi=0.0953.
 Free top, bottom z-bonded: expect U3(top) = lam_z - 1 = 0.30 at ~zero stress.
 Run:  abaqus job=one_element_phi user=umat_growth_phi.f interactive
**
*NODE
 1, 0.0, 0.0, 0.0
 2, 1.0, 0.0, 0.0
 3, 1.0, 1.0, 0.0
 4, 0.0, 1.0, 0.0
 5, 0.0, 0.0, 1.0
 6, 1.0, 0.0, 1.0
 7, 1.0, 1.0, 1.0
 8, 0.0, 1.0, 1.0
*ELEMENT, TYPE=C3D8, ELSET=ONE
 1, 1,2,3,4,5,6,7,8
*NSET, NSET=ALLN
 1,2,3,4,5,6,7,8
*SOLID SECTION, ELSET=ONE, MATERIAL=BIOFILM
**
*MATERIAL, NAME=BIOFILM
*USER MATERIAL, CONSTANTS=5
** E,     nu,   beta_depth,  intercept,  mode(0=depth)
 5000.,  0.45, 17.1806,     -1.3372,    0.0
*DEPVAR
 3
**
** phi_Pg field: start at 0 everywhere
*INITIAL CONDITIONS, TYPE=FIELD, VARIABLE=1
 ALLN, 0.0
**
** Bottom face (z=0) bonded in z; pin rigid-body modes; lateral & top free.
*BOUNDARY
 1, 1, 3
 2, 2, 3
 3, 3, 3
 4, 1, 1
 4, 3, 3
**
*STEP, NLGEOM=YES, INC=200
 Ramp phi_Pg 0 -> 0.0953 (lam_z 1 -> 1.30); growth onsets when beta*phi+ic>0.
*STATIC
 0.02, 1.0, 1.0E-5, 0.05
*FIELD, VARIABLE=1
 ALLN, 0.0953
*OUTPUT, FIELD
*NODE OUTPUT
 U
*ELEMENT OUTPUT
 S, E, SDV
*OUTPUT, HISTORY
*NODE OUTPUT, NSET=ALLN
 U3
*END STEP
