*HEADING
 Biofilm poroelastic column - Terzaghi consolidation (A2)
*NODE
 1, 0.00000, 0.00000, 0.00000
 2, 0.25000, 0.00000, 0.00000
 3, 0.00000, 0.25000, 0.00000
 4, 0.25000, 0.25000, 0.00000
 5, 0.00000, 0.00000, 0.06250
 6, 0.25000, 0.00000, 0.06250
 7, 0.00000, 0.25000, 0.06250
 8, 0.25000, 0.25000, 0.06250
 9, 0.00000, 0.00000, 0.12500
 10, 0.25000, 0.00000, 0.12500
 11, 0.00000, 0.25000, 0.12500
 12, 0.25000, 0.25000, 0.12500
 13, 0.00000, 0.00000, 0.18750
 14, 0.25000, 0.00000, 0.18750
 15, 0.00000, 0.25000, 0.18750
 16, 0.25000, 0.25000, 0.18750
 17, 0.00000, 0.00000, 0.25000
 18, 0.25000, 0.00000, 0.25000
 19, 0.00000, 0.25000, 0.25000
 20, 0.25000, 0.25000, 0.25000
 21, 0.00000, 0.00000, 0.31250
 22, 0.25000, 0.00000, 0.31250
 23, 0.00000, 0.25000, 0.31250
 24, 0.25000, 0.25000, 0.31250
 25, 0.00000, 0.00000, 0.37500
 26, 0.25000, 0.00000, 0.37500
 27, 0.00000, 0.25000, 0.37500
 28, 0.25000, 0.25000, 0.37500
 29, 0.00000, 0.00000, 0.43750
 30, 0.25000, 0.00000, 0.43750
 31, 0.00000, 0.25000, 0.43750
 32, 0.25000, 0.25000, 0.43750
 33, 0.00000, 0.00000, 0.50000
 34, 0.25000, 0.00000, 0.50000
 35, 0.00000, 0.25000, 0.50000
 36, 0.25000, 0.25000, 0.50000
 37, 0.00000, 0.00000, 0.56250
 38, 0.25000, 0.00000, 0.56250
 39, 0.00000, 0.25000, 0.56250
 40, 0.25000, 0.25000, 0.56250
 41, 0.00000, 0.00000, 0.62500
 42, 0.25000, 0.00000, 0.62500
 43, 0.00000, 0.25000, 0.62500
 44, 0.25000, 0.25000, 0.62500
 45, 0.00000, 0.00000, 0.68750
 46, 0.25000, 0.00000, 0.68750
 47, 0.00000, 0.25000, 0.68750
 48, 0.25000, 0.25000, 0.68750
 49, 0.00000, 0.00000, 0.75000
 50, 0.25000, 0.00000, 0.75000
 51, 0.00000, 0.25000, 0.75000
 52, 0.25000, 0.25000, 0.75000
 53, 0.00000, 0.00000, 0.81250
 54, 0.25000, 0.00000, 0.81250
 55, 0.00000, 0.25000, 0.81250
 56, 0.25000, 0.25000, 0.81250
 57, 0.00000, 0.00000, 0.87500
 58, 0.25000, 0.00000, 0.87500
 59, 0.00000, 0.25000, 0.87500
 60, 0.25000, 0.25000, 0.87500
 61, 0.00000, 0.00000, 0.93750
 62, 0.25000, 0.00000, 0.93750
 63, 0.00000, 0.25000, 0.93750
 64, 0.25000, 0.25000, 0.93750
 65, 0.00000, 0.00000, 1.00000
 66, 0.25000, 0.00000, 1.00000
 67, 0.00000, 0.25000, 1.00000
 68, 0.25000, 0.25000, 1.00000
*ELEMENT, TYPE=C3D8P, ELSET=COL
 1, 1,2,4,3,5,6,8,7
 2, 5,6,8,7,9,10,12,11
 3, 9,10,12,11,13,14,16,15
 4, 13,14,16,15,17,18,20,19
 5, 17,18,20,19,21,22,24,23
 6, 21,22,24,23,25,26,28,27
 7, 25,26,28,27,29,30,32,31
 8, 29,30,32,31,33,34,36,35
 9, 33,34,36,35,37,38,40,39
 10, 37,38,40,39,41,42,44,43
 11, 41,42,44,43,45,46,48,47
 12, 45,46,48,47,49,50,52,51
 13, 49,50,52,51,53,54,56,55
 14, 53,54,56,55,57,58,60,59
 15, 57,58,60,59,61,62,64,63
 16, 61,62,64,63,65,66,68,67
*SOLID SECTION, ELSET=COL, MATERIAL=PORO
*MATERIAL, NAME=PORO
*ELASTIC
 5000, 0.3
*PERMEABILITY, SPECIFIC=10.0
 0.0001, 1.0
*POROUS BULK MODULI
 2.2E5, 2.2E9
*NSET, NSET=ALLN
 1,2,3,4,5,6,7,8,9,10,11,12
 13,14,15,16,17,18,19,20,21,22,23,24
 25,26,27,28,29,30,31,32,33,34,35,36
 37,38,39,40,41,42,43,44,45,46,47,48
 49,50,51,52,53,54,55,56,57,58,59,60
 61,62,63,64,65,66,67,68
*NSET, NSET=TOPN
 65,66,67,68
*NSET, NSET=BOTN
 1,2,3,4
*INITIAL CONDITIONS, TYPE=RATIO
 ALLN, 1.0
*INITIAL CONDITIONS, TYPE=PORE PRESSURE
 ALLN, 1.0
*BOUNDARY
 ALLN, 1, 2
 BOTN, 3, 3
*STEP, NLGEOM=NO, INC=500
 consolidation / drainage
*SOILS, CONSOLIDATION, UTOL=0.1
 1.0E-6, 50.0, 1.0E-10, 2.0
*BOUNDARY
 TOPN, 8, 8, 0.0
*OUTPUT, FIELD, FREQUENCY=1
*NODE OUTPUT
 U, POR
*END STEP
