*HEADING
 Periodic RVE of threaded biofilm-implant interface, cond=DH profile=flat amp=0.000
*NODE
 1, 0.000000, 0.000000
 2, 0.020833, 0.000000
 3, 0.041667, 0.000000
 4, 0.062500, 0.000000
 5, 0.083333, 0.000000
 6, 0.104167, 0.000000
 7, 0.125000, 0.000000
 8, 0.145833, 0.000000
 9, 0.166667, 0.000000
 10, 0.187500, 0.000000
 11, 0.208333, 0.000000
 12, 0.229167, 0.000000
 13, 0.250000, 0.000000
 14, 0.270833, 0.000000
 15, 0.291667, 0.000000
 16, 0.312500, 0.000000
 17, 0.333333, 0.000000
 18, 0.354167, 0.000000
 19, 0.375000, 0.000000
 20, 0.395833, 0.000000
 21, 0.416667, 0.000000
 22, 0.437500, 0.000000
 23, 0.458333, 0.000000
 24, 0.479167, 0.000000
 25, 0.500000, 0.000000
 26, 0.520833, 0.000000
 27, 0.541667, 0.000000
 28, 0.562500, 0.000000
 29, 0.583333, 0.000000
 30, 0.604167, 0.000000
 31, 0.625000, 0.000000
 32, 0.645833, 0.000000
 33, 0.666667, 0.000000
 34, 0.687500, 0.000000
 35, 0.708333, 0.000000
 36, 0.729167, 0.000000
 37, 0.750000, 0.000000
 38, 0.770833, 0.000000
 39, 0.791667, 0.000000
 40, 0.812500, 0.000000
 41, 0.833333, 0.000000
 42, 0.854167, 0.000000
 43, 0.875000, 0.000000
 44, 0.895833, 0.000000
 45, 0.916667, 0.000000
 46, 0.937500, 0.000000
 47, 0.958333, 0.000000
 48, 0.979167, 0.000000
 49, 1.000000, 0.000000
 50, 0.000000, 0.055556
 51, 0.020833, 0.055556
 52, 0.041667, 0.055556
 53, 0.062500, 0.055556
 54, 0.083333, 0.055556
 55, 0.104167, 0.055556
 56, 0.125000, 0.055556
 57, 0.145833, 0.055556
 58, 0.166667, 0.055556
 59, 0.187500, 0.055556
 60, 0.208333, 0.055556
 61, 0.229167, 0.055556
 62, 0.250000, 0.055556
 63, 0.270833, 0.055556
 64, 0.291667, 0.055556
 65, 0.312500, 0.055556
 66, 0.333333, 0.055556
 67, 0.354167, 0.055556
 68, 0.375000, 0.055556
 69, 0.395833, 0.055556
 70, 0.416667, 0.055556
 71, 0.437500, 0.055556
 72, 0.458333, 0.055556
 73, 0.479167, 0.055556
 74, 0.500000, 0.055556
 75, 0.520833, 0.055556
 76, 0.541667, 0.055556
 77, 0.562500, 0.055556
 78, 0.583333, 0.055556
 79, 0.604167, 0.055556
 80, 0.625000, 0.055556
 81, 0.645833, 0.055556
 82, 0.666667, 0.055556
 83, 0.687500, 0.055556
 84, 0.708333, 0.055556
 85, 0.729167, 0.055556
 86, 0.750000, 0.055556
 87, 0.770833, 0.055556
 88, 0.791667, 0.055556
 89, 0.812500, 0.055556
 90, 0.833333, 0.055556
 91, 0.854167, 0.055556
 92, 0.875000, 0.055556
 93, 0.895833, 0.055556
 94, 0.916667, 0.055556
 95, 0.937500, 0.055556
 96, 0.958333, 0.055556
 97, 0.979167, 0.055556
 98, 1.000000, 0.055556
 99, 0.000000, 0.111111
 100, 0.020833, 0.111111
 101, 0.041667, 0.111111
 102, 0.062500, 0.111111
 103, 0.083333, 0.111111
 104, 0.104167, 0.111111
 105, 0.125000, 0.111111
 106, 0.145833, 0.111111
 107, 0.166667, 0.111111
 108, 0.187500, 0.111111
 109, 0.208333, 0.111111
 110, 0.229167, 0.111111
 111, 0.250000, 0.111111
 112, 0.270833, 0.111111
 113, 0.291667, 0.111111
 114, 0.312500, 0.111111
 115, 0.333333, 0.111111
 116, 0.354167, 0.111111
 117, 0.375000, 0.111111
 118, 0.395833, 0.111111
 119, 0.416667, 0.111111
 120, 0.437500, 0.111111
 121, 0.458333, 0.111111
 122, 0.479167, 0.111111
 123, 0.500000, 0.111111
 124, 0.520833, 0.111111
 125, 0.541667, 0.111111
 126, 0.562500, 0.111111
 127, 0.583333, 0.111111
 128, 0.604167, 0.111111
 129, 0.625000, 0.111111
 130, 0.645833, 0.111111
 131, 0.666667, 0.111111
 132, 0.687500, 0.111111
 133, 0.708333, 0.111111
 134, 0.729167, 0.111111
 135, 0.750000, 0.111111
 136, 0.770833, 0.111111
 137, 0.791667, 0.111111
 138, 0.812500, 0.111111
 139, 0.833333, 0.111111
 140, 0.854167, 0.111111
 141, 0.875000, 0.111111
 142, 0.895833, 0.111111
 143, 0.916667, 0.111111
 144, 0.937500, 0.111111
 145, 0.958333, 0.111111
 146, 0.979167, 0.111111
 147, 1.000000, 0.111111
 148, 0.000000, 0.166667
 149, 0.020833, 0.166667
 150, 0.041667, 0.166667
 151, 0.062500, 0.166667
 152, 0.083333, 0.166667
 153, 0.104167, 0.166667
 154, 0.125000, 0.166667
 155, 0.145833, 0.166667
 156, 0.166667, 0.166667
 157, 0.187500, 0.166667
 158, 0.208333, 0.166667
 159, 0.229167, 0.166667
 160, 0.250000, 0.166667
 161, 0.270833, 0.166667
 162, 0.291667, 0.166667
 163, 0.312500, 0.166667
 164, 0.333333, 0.166667
 165, 0.354167, 0.166667
 166, 0.375000, 0.166667
 167, 0.395833, 0.166667
 168, 0.416667, 0.166667
 169, 0.437500, 0.166667
 170, 0.458333, 0.166667
 171, 0.479167, 0.166667
 172, 0.500000, 0.166667
 173, 0.520833, 0.166667
 174, 0.541667, 0.166667
 175, 0.562500, 0.166667
 176, 0.583333, 0.166667
 177, 0.604167, 0.166667
 178, 0.625000, 0.166667
 179, 0.645833, 0.166667
 180, 0.666667, 0.166667
 181, 0.687500, 0.166667
 182, 0.708333, 0.166667
 183, 0.729167, 0.166667
 184, 0.750000, 0.166667
 185, 0.770833, 0.166667
 186, 0.791667, 0.166667
 187, 0.812500, 0.166667
 188, 0.833333, 0.166667
 189, 0.854167, 0.166667
 190, 0.875000, 0.166667
 191, 0.895833, 0.166667
 192, 0.916667, 0.166667
 193, 0.937500, 0.166667
 194, 0.958333, 0.166667
 195, 0.979167, 0.166667
 196, 1.000000, 0.166667
 197, 0.000000, 0.222222
 198, 0.020833, 0.222222
 199, 0.041667, 0.222222
 200, 0.062500, 0.222222
 201, 0.083333, 0.222222
 202, 0.104167, 0.222222
 203, 0.125000, 0.222222
 204, 0.145833, 0.222222
 205, 0.166667, 0.222222
 206, 0.187500, 0.222222
 207, 0.208333, 0.222222
 208, 0.229167, 0.222222
 209, 0.250000, 0.222222
 210, 0.270833, 0.222222
 211, 0.291667, 0.222222
 212, 0.312500, 0.222222
 213, 0.333333, 0.222222
 214, 0.354167, 0.222222
 215, 0.375000, 0.222222
 216, 0.395833, 0.222222
 217, 0.416667, 0.222222
 218, 0.437500, 0.222222
 219, 0.458333, 0.222222
 220, 0.479167, 0.222222
 221, 0.500000, 0.222222
 222, 0.520833, 0.222222
 223, 0.541667, 0.222222
 224, 0.562500, 0.222222
 225, 0.583333, 0.222222
 226, 0.604167, 0.222222
 227, 0.625000, 0.222222
 228, 0.645833, 0.222222
 229, 0.666667, 0.222222
 230, 0.687500, 0.222222
 231, 0.708333, 0.222222
 232, 0.729167, 0.222222
 233, 0.750000, 0.222222
 234, 0.770833, 0.222222
 235, 0.791667, 0.222222
 236, 0.812500, 0.222222
 237, 0.833333, 0.222222
 238, 0.854167, 0.222222
 239, 0.875000, 0.222222
 240, 0.895833, 0.222222
 241, 0.916667, 0.222222
 242, 0.937500, 0.222222
 243, 0.958333, 0.222222
 244, 0.979167, 0.222222
 245, 1.000000, 0.222222
 246, 0.000000, 0.277778
 247, 0.020833, 0.277778
 248, 0.041667, 0.277778
 249, 0.062500, 0.277778
 250, 0.083333, 0.277778
 251, 0.104167, 0.277778
 252, 0.125000, 0.277778
 253, 0.145833, 0.277778
 254, 0.166667, 0.277778
 255, 0.187500, 0.277778
 256, 0.208333, 0.277778
 257, 0.229167, 0.277778
 258, 0.250000, 0.277778
 259, 0.270833, 0.277778
 260, 0.291667, 0.277778
 261, 0.312500, 0.277778
 262, 0.333333, 0.277778
 263, 0.354167, 0.277778
 264, 0.375000, 0.277778
 265, 0.395833, 0.277778
 266, 0.416667, 0.277778
 267, 0.437500, 0.277778
 268, 0.458333, 0.277778
 269, 0.479167, 0.277778
 270, 0.500000, 0.277778
 271, 0.520833, 0.277778
 272, 0.541667, 0.277778
 273, 0.562500, 0.277778
 274, 0.583333, 0.277778
 275, 0.604167, 0.277778
 276, 0.625000, 0.277778
 277, 0.645833, 0.277778
 278, 0.666667, 0.277778
 279, 0.687500, 0.277778
 280, 0.708333, 0.277778
 281, 0.729167, 0.277778
 282, 0.750000, 0.277778
 283, 0.770833, 0.277778
 284, 0.791667, 0.277778
 285, 0.812500, 0.277778
 286, 0.833333, 0.277778
 287, 0.854167, 0.277778
 288, 0.875000, 0.277778
 289, 0.895833, 0.277778
 290, 0.916667, 0.277778
 291, 0.937500, 0.277778
 292, 0.958333, 0.277778
 293, 0.979167, 0.277778
 294, 1.000000, 0.277778
 295, 0.000000, 0.333333
 296, 0.020833, 0.333333
 297, 0.041667, 0.333333
 298, 0.062500, 0.333333
 299, 0.083333, 0.333333
 300, 0.104167, 0.333333
 301, 0.125000, 0.333333
 302, 0.145833, 0.333333
 303, 0.166667, 0.333333
 304, 0.187500, 0.333333
 305, 0.208333, 0.333333
 306, 0.229167, 0.333333
 307, 0.250000, 0.333333
 308, 0.270833, 0.333333
 309, 0.291667, 0.333333
 310, 0.312500, 0.333333
 311, 0.333333, 0.333333
 312, 0.354167, 0.333333
 313, 0.375000, 0.333333
 314, 0.395833, 0.333333
 315, 0.416667, 0.333333
 316, 0.437500, 0.333333
 317, 0.458333, 0.333333
 318, 0.479167, 0.333333
 319, 0.500000, 0.333333
 320, 0.520833, 0.333333
 321, 0.541667, 0.333333
 322, 0.562500, 0.333333
 323, 0.583333, 0.333333
 324, 0.604167, 0.333333
 325, 0.625000, 0.333333
 326, 0.645833, 0.333333
 327, 0.666667, 0.333333
 328, 0.687500, 0.333333
 329, 0.708333, 0.333333
 330, 0.729167, 0.333333
 331, 0.750000, 0.333333
 332, 0.770833, 0.333333
 333, 0.791667, 0.333333
 334, 0.812500, 0.333333
 335, 0.833333, 0.333333
 336, 0.854167, 0.333333
 337, 0.875000, 0.333333
 338, 0.895833, 0.333333
 339, 0.916667, 0.333333
 340, 0.937500, 0.333333
 341, 0.958333, 0.333333
 342, 0.979167, 0.333333
 343, 1.000000, 0.333333
 344, 0.000000, 0.388889
 345, 0.020833, 0.388889
 346, 0.041667, 0.388889
 347, 0.062500, 0.388889
 348, 0.083333, 0.388889
 349, 0.104167, 0.388889
 350, 0.125000, 0.388889
 351, 0.145833, 0.388889
 352, 0.166667, 0.388889
 353, 0.187500, 0.388889
 354, 0.208333, 0.388889
 355, 0.229167, 0.388889
 356, 0.250000, 0.388889
 357, 0.270833, 0.388889
 358, 0.291667, 0.388889
 359, 0.312500, 0.388889
 360, 0.333333, 0.388889
 361, 0.354167, 0.388889
 362, 0.375000, 0.388889
 363, 0.395833, 0.388889
 364, 0.416667, 0.388889
 365, 0.437500, 0.388889
 366, 0.458333, 0.388889
 367, 0.479167, 0.388889
 368, 0.500000, 0.388889
 369, 0.520833, 0.388889
 370, 0.541667, 0.388889
 371, 0.562500, 0.388889
 372, 0.583333, 0.388889
 373, 0.604167, 0.388889
 374, 0.625000, 0.388889
 375, 0.645833, 0.388889
 376, 0.666667, 0.388889
 377, 0.687500, 0.388889
 378, 0.708333, 0.388889
 379, 0.729167, 0.388889
 380, 0.750000, 0.388889
 381, 0.770833, 0.388889
 382, 0.791667, 0.388889
 383, 0.812500, 0.388889
 384, 0.833333, 0.388889
 385, 0.854167, 0.388889
 386, 0.875000, 0.388889
 387, 0.895833, 0.388889
 388, 0.916667, 0.388889
 389, 0.937500, 0.388889
 390, 0.958333, 0.388889
 391, 0.979167, 0.388889
 392, 1.000000, 0.388889
 393, 0.000000, 0.444444
 394, 0.020833, 0.444444
 395, 0.041667, 0.444444
 396, 0.062500, 0.444444
 397, 0.083333, 0.444444
 398, 0.104167, 0.444444
 399, 0.125000, 0.444444
 400, 0.145833, 0.444444
 401, 0.166667, 0.444444
 402, 0.187500, 0.444444
 403, 0.208333, 0.444444
 404, 0.229167, 0.444444
 405, 0.250000, 0.444444
 406, 0.270833, 0.444444
 407, 0.291667, 0.444444
 408, 0.312500, 0.444444
 409, 0.333333, 0.444444
 410, 0.354167, 0.444444
 411, 0.375000, 0.444444
 412, 0.395833, 0.444444
 413, 0.416667, 0.444444
 414, 0.437500, 0.444444
 415, 0.458333, 0.444444
 416, 0.479167, 0.444444
 417, 0.500000, 0.444444
 418, 0.520833, 0.444444
 419, 0.541667, 0.444444
 420, 0.562500, 0.444444
 421, 0.583333, 0.444444
 422, 0.604167, 0.444444
 423, 0.625000, 0.444444
 424, 0.645833, 0.444444
 425, 0.666667, 0.444444
 426, 0.687500, 0.444444
 427, 0.708333, 0.444444
 428, 0.729167, 0.444444
 429, 0.750000, 0.444444
 430, 0.770833, 0.444444
 431, 0.791667, 0.444444
 432, 0.812500, 0.444444
 433, 0.833333, 0.444444
 434, 0.854167, 0.444444
 435, 0.875000, 0.444444
 436, 0.895833, 0.444444
 437, 0.916667, 0.444444
 438, 0.937500, 0.444444
 439, 0.958333, 0.444444
 440, 0.979167, 0.444444
 441, 1.000000, 0.444444
 442, 0.000000, 0.500000
 443, 0.020833, 0.500000
 444, 0.041667, 0.500000
 445, 0.062500, 0.500000
 446, 0.083333, 0.500000
 447, 0.104167, 0.500000
 448, 0.125000, 0.500000
 449, 0.145833, 0.500000
 450, 0.166667, 0.500000
 451, 0.187500, 0.500000
 452, 0.208333, 0.500000
 453, 0.229167, 0.500000
 454, 0.250000, 0.500000
 455, 0.270833, 0.500000
 456, 0.291667, 0.500000
 457, 0.312500, 0.500000
 458, 0.333333, 0.500000
 459, 0.354167, 0.500000
 460, 0.375000, 0.500000
 461, 0.395833, 0.500000
 462, 0.416667, 0.500000
 463, 0.437500, 0.500000
 464, 0.458333, 0.500000
 465, 0.479167, 0.500000
 466, 0.500000, 0.500000
 467, 0.520833, 0.500000
 468, 0.541667, 0.500000
 469, 0.562500, 0.500000
 470, 0.583333, 0.500000
 471, 0.604167, 0.500000
 472, 0.625000, 0.500000
 473, 0.645833, 0.500000
 474, 0.666667, 0.500000
 475, 0.687500, 0.500000
 476, 0.708333, 0.500000
 477, 0.729167, 0.500000
 478, 0.750000, 0.500000
 479, 0.770833, 0.500000
 480, 0.791667, 0.500000
 481, 0.812500, 0.500000
 482, 0.833333, 0.500000
 483, 0.854167, 0.500000
 484, 0.875000, 0.500000
 485, 0.895833, 0.500000
 486, 0.916667, 0.500000
 487, 0.937500, 0.500000
 488, 0.958333, 0.500000
 489, 0.979167, 0.500000
 490, 1.000000, 0.500000
 491, 0.000000, 0.555556
 492, 0.020833, 0.555556
 493, 0.041667, 0.555556
 494, 0.062500, 0.555556
 495, 0.083333, 0.555556
 496, 0.104167, 0.555556
 497, 0.125000, 0.555556
 498, 0.145833, 0.555556
 499, 0.166667, 0.555556
 500, 0.187500, 0.555556
 501, 0.208333, 0.555556
 502, 0.229167, 0.555556
 503, 0.250000, 0.555556
 504, 0.270833, 0.555556
 505, 0.291667, 0.555556
 506, 0.312500, 0.555556
 507, 0.333333, 0.555556
 508, 0.354167, 0.555556
 509, 0.375000, 0.555556
 510, 0.395833, 0.555556
 511, 0.416667, 0.555556
 512, 0.437500, 0.555556
 513, 0.458333, 0.555556
 514, 0.479167, 0.555556
 515, 0.500000, 0.555556
 516, 0.520833, 0.555556
 517, 0.541667, 0.555556
 518, 0.562500, 0.555556
 519, 0.583333, 0.555556
 520, 0.604167, 0.555556
 521, 0.625000, 0.555556
 522, 0.645833, 0.555556
 523, 0.666667, 0.555556
 524, 0.687500, 0.555556
 525, 0.708333, 0.555556
 526, 0.729167, 0.555556
 527, 0.750000, 0.555556
 528, 0.770833, 0.555556
 529, 0.791667, 0.555556
 530, 0.812500, 0.555556
 531, 0.833333, 0.555556
 532, 0.854167, 0.555556
 533, 0.875000, 0.555556
 534, 0.895833, 0.555556
 535, 0.916667, 0.555556
 536, 0.937500, 0.555556
 537, 0.958333, 0.555556
 538, 0.979167, 0.555556
 539, 1.000000, 0.555556
 540, 0.000000, 0.611111
 541, 0.020833, 0.611111
 542, 0.041667, 0.611111
 543, 0.062500, 0.611111
 544, 0.083333, 0.611111
 545, 0.104167, 0.611111
 546, 0.125000, 0.611111
 547, 0.145833, 0.611111
 548, 0.166667, 0.611111
 549, 0.187500, 0.611111
 550, 0.208333, 0.611111
 551, 0.229167, 0.611111
 552, 0.250000, 0.611111
 553, 0.270833, 0.611111
 554, 0.291667, 0.611111
 555, 0.312500, 0.611111
 556, 0.333333, 0.611111
 557, 0.354167, 0.611111
 558, 0.375000, 0.611111
 559, 0.395833, 0.611111
 560, 0.416667, 0.611111
 561, 0.437500, 0.611111
 562, 0.458333, 0.611111
 563, 0.479167, 0.611111
 564, 0.500000, 0.611111
 565, 0.520833, 0.611111
 566, 0.541667, 0.611111
 567, 0.562500, 0.611111
 568, 0.583333, 0.611111
 569, 0.604167, 0.611111
 570, 0.625000, 0.611111
 571, 0.645833, 0.611111
 572, 0.666667, 0.611111
 573, 0.687500, 0.611111
 574, 0.708333, 0.611111
 575, 0.729167, 0.611111
 576, 0.750000, 0.611111
 577, 0.770833, 0.611111
 578, 0.791667, 0.611111
 579, 0.812500, 0.611111
 580, 0.833333, 0.611111
 581, 0.854167, 0.611111
 582, 0.875000, 0.611111
 583, 0.895833, 0.611111
 584, 0.916667, 0.611111
 585, 0.937500, 0.611111
 586, 0.958333, 0.611111
 587, 0.979167, 0.611111
 588, 1.000000, 0.611111
 589, 0.000000, 0.666667
 590, 0.020833, 0.666667
 591, 0.041667, 0.666667
 592, 0.062500, 0.666667
 593, 0.083333, 0.666667
 594, 0.104167, 0.666667
 595, 0.125000, 0.666667
 596, 0.145833, 0.666667
 597, 0.166667, 0.666667
 598, 0.187500, 0.666667
 599, 0.208333, 0.666667
 600, 0.229167, 0.666667
 601, 0.250000, 0.666667
 602, 0.270833, 0.666667
 603, 0.291667, 0.666667
 604, 0.312500, 0.666667
 605, 0.333333, 0.666667
 606, 0.354167, 0.666667
 607, 0.375000, 0.666667
 608, 0.395833, 0.666667
 609, 0.416667, 0.666667
 610, 0.437500, 0.666667
 611, 0.458333, 0.666667
 612, 0.479167, 0.666667
 613, 0.500000, 0.666667
 614, 0.520833, 0.666667
 615, 0.541667, 0.666667
 616, 0.562500, 0.666667
 617, 0.583333, 0.666667
 618, 0.604167, 0.666667
 619, 0.625000, 0.666667
 620, 0.645833, 0.666667
 621, 0.666667, 0.666667
 622, 0.687500, 0.666667
 623, 0.708333, 0.666667
 624, 0.729167, 0.666667
 625, 0.750000, 0.666667
 626, 0.770833, 0.666667
 627, 0.791667, 0.666667
 628, 0.812500, 0.666667
 629, 0.833333, 0.666667
 630, 0.854167, 0.666667
 631, 0.875000, 0.666667
 632, 0.895833, 0.666667
 633, 0.916667, 0.666667
 634, 0.937500, 0.666667
 635, 0.958333, 0.666667
 636, 0.979167, 0.666667
 637, 1.000000, 0.666667
 638, 0.000000, 0.722222
 639, 0.020833, 0.722222
 640, 0.041667, 0.722222
 641, 0.062500, 0.722222
 642, 0.083333, 0.722222
 643, 0.104167, 0.722222
 644, 0.125000, 0.722222
 645, 0.145833, 0.722222
 646, 0.166667, 0.722222
 647, 0.187500, 0.722222
 648, 0.208333, 0.722222
 649, 0.229167, 0.722222
 650, 0.250000, 0.722222
 651, 0.270833, 0.722222
 652, 0.291667, 0.722222
 653, 0.312500, 0.722222
 654, 0.333333, 0.722222
 655, 0.354167, 0.722222
 656, 0.375000, 0.722222
 657, 0.395833, 0.722222
 658, 0.416667, 0.722222
 659, 0.437500, 0.722222
 660, 0.458333, 0.722222
 661, 0.479167, 0.722222
 662, 0.500000, 0.722222
 663, 0.520833, 0.722222
 664, 0.541667, 0.722222
 665, 0.562500, 0.722222
 666, 0.583333, 0.722222
 667, 0.604167, 0.722222
 668, 0.625000, 0.722222
 669, 0.645833, 0.722222
 670, 0.666667, 0.722222
 671, 0.687500, 0.722222
 672, 0.708333, 0.722222
 673, 0.729167, 0.722222
 674, 0.750000, 0.722222
 675, 0.770833, 0.722222
 676, 0.791667, 0.722222
 677, 0.812500, 0.722222
 678, 0.833333, 0.722222
 679, 0.854167, 0.722222
 680, 0.875000, 0.722222
 681, 0.895833, 0.722222
 682, 0.916667, 0.722222
 683, 0.937500, 0.722222
 684, 0.958333, 0.722222
 685, 0.979167, 0.722222
 686, 1.000000, 0.722222
 687, 0.000000, 0.777778
 688, 0.020833, 0.777778
 689, 0.041667, 0.777778
 690, 0.062500, 0.777778
 691, 0.083333, 0.777778
 692, 0.104167, 0.777778
 693, 0.125000, 0.777778
 694, 0.145833, 0.777778
 695, 0.166667, 0.777778
 696, 0.187500, 0.777778
 697, 0.208333, 0.777778
 698, 0.229167, 0.777778
 699, 0.250000, 0.777778
 700, 0.270833, 0.777778
 701, 0.291667, 0.777778
 702, 0.312500, 0.777778
 703, 0.333333, 0.777778
 704, 0.354167, 0.777778
 705, 0.375000, 0.777778
 706, 0.395833, 0.777778
 707, 0.416667, 0.777778
 708, 0.437500, 0.777778
 709, 0.458333, 0.777778
 710, 0.479167, 0.777778
 711, 0.500000, 0.777778
 712, 0.520833, 0.777778
 713, 0.541667, 0.777778
 714, 0.562500, 0.777778
 715, 0.583333, 0.777778
 716, 0.604167, 0.777778
 717, 0.625000, 0.777778
 718, 0.645833, 0.777778
 719, 0.666667, 0.777778
 720, 0.687500, 0.777778
 721, 0.708333, 0.777778
 722, 0.729167, 0.777778
 723, 0.750000, 0.777778
 724, 0.770833, 0.777778
 725, 0.791667, 0.777778
 726, 0.812500, 0.777778
 727, 0.833333, 0.777778
 728, 0.854167, 0.777778
 729, 0.875000, 0.777778
 730, 0.895833, 0.777778
 731, 0.916667, 0.777778
 732, 0.937500, 0.777778
 733, 0.958333, 0.777778
 734, 0.979167, 0.777778
 735, 1.000000, 0.777778
 736, 0.000000, 0.833333
 737, 0.020833, 0.833333
 738, 0.041667, 0.833333
 739, 0.062500, 0.833333
 740, 0.083333, 0.833333
 741, 0.104167, 0.833333
 742, 0.125000, 0.833333
 743, 0.145833, 0.833333
 744, 0.166667, 0.833333
 745, 0.187500, 0.833333
 746, 0.208333, 0.833333
 747, 0.229167, 0.833333
 748, 0.250000, 0.833333
 749, 0.270833, 0.833333
 750, 0.291667, 0.833333
 751, 0.312500, 0.833333
 752, 0.333333, 0.833333
 753, 0.354167, 0.833333
 754, 0.375000, 0.833333
 755, 0.395833, 0.833333
 756, 0.416667, 0.833333
 757, 0.437500, 0.833333
 758, 0.458333, 0.833333
 759, 0.479167, 0.833333
 760, 0.500000, 0.833333
 761, 0.520833, 0.833333
 762, 0.541667, 0.833333
 763, 0.562500, 0.833333
 764, 0.583333, 0.833333
 765, 0.604167, 0.833333
 766, 0.625000, 0.833333
 767, 0.645833, 0.833333
 768, 0.666667, 0.833333
 769, 0.687500, 0.833333
 770, 0.708333, 0.833333
 771, 0.729167, 0.833333
 772, 0.750000, 0.833333
 773, 0.770833, 0.833333
 774, 0.791667, 0.833333
 775, 0.812500, 0.833333
 776, 0.833333, 0.833333
 777, 0.854167, 0.833333
 778, 0.875000, 0.833333
 779, 0.895833, 0.833333
 780, 0.916667, 0.833333
 781, 0.937500, 0.833333
 782, 0.958333, 0.833333
 783, 0.979167, 0.833333
 784, 1.000000, 0.833333
 785, 0.000000, 0.888889
 786, 0.020833, 0.888889
 787, 0.041667, 0.888889
 788, 0.062500, 0.888889
 789, 0.083333, 0.888889
 790, 0.104167, 0.888889
 791, 0.125000, 0.888889
 792, 0.145833, 0.888889
 793, 0.166667, 0.888889
 794, 0.187500, 0.888889
 795, 0.208333, 0.888889
 796, 0.229167, 0.888889
 797, 0.250000, 0.888889
 798, 0.270833, 0.888889
 799, 0.291667, 0.888889
 800, 0.312500, 0.888889
 801, 0.333333, 0.888889
 802, 0.354167, 0.888889
 803, 0.375000, 0.888889
 804, 0.395833, 0.888889
 805, 0.416667, 0.888889
 806, 0.437500, 0.888889
 807, 0.458333, 0.888889
 808, 0.479167, 0.888889
 809, 0.500000, 0.888889
 810, 0.520833, 0.888889
 811, 0.541667, 0.888889
 812, 0.562500, 0.888889
 813, 0.583333, 0.888889
 814, 0.604167, 0.888889
 815, 0.625000, 0.888889
 816, 0.645833, 0.888889
 817, 0.666667, 0.888889
 818, 0.687500, 0.888889
 819, 0.708333, 0.888889
 820, 0.729167, 0.888889
 821, 0.750000, 0.888889
 822, 0.770833, 0.888889
 823, 0.791667, 0.888889
 824, 0.812500, 0.888889
 825, 0.833333, 0.888889
 826, 0.854167, 0.888889
 827, 0.875000, 0.888889
 828, 0.895833, 0.888889
 829, 0.916667, 0.888889
 830, 0.937500, 0.888889
 831, 0.958333, 0.888889
 832, 0.979167, 0.888889
 833, 1.000000, 0.888889
 834, 0.000000, 0.944444
 835, 0.020833, 0.944444
 836, 0.041667, 0.944444
 837, 0.062500, 0.944444
 838, 0.083333, 0.944444
 839, 0.104167, 0.944444
 840, 0.125000, 0.944444
 841, 0.145833, 0.944444
 842, 0.166667, 0.944444
 843, 0.187500, 0.944444
 844, 0.208333, 0.944444
 845, 0.229167, 0.944444
 846, 0.250000, 0.944444
 847, 0.270833, 0.944444
 848, 0.291667, 0.944444
 849, 0.312500, 0.944444
 850, 0.333333, 0.944444
 851, 0.354167, 0.944444
 852, 0.375000, 0.944444
 853, 0.395833, 0.944444
 854, 0.416667, 0.944444
 855, 0.437500, 0.944444
 856, 0.458333, 0.944444
 857, 0.479167, 0.944444
 858, 0.500000, 0.944444
 859, 0.520833, 0.944444
 860, 0.541667, 0.944444
 861, 0.562500, 0.944444
 862, 0.583333, 0.944444
 863, 0.604167, 0.944444
 864, 0.625000, 0.944444
 865, 0.645833, 0.944444
 866, 0.666667, 0.944444
 867, 0.687500, 0.944444
 868, 0.708333, 0.944444
 869, 0.729167, 0.944444
 870, 0.750000, 0.944444
 871, 0.770833, 0.944444
 872, 0.791667, 0.944444
 873, 0.812500, 0.944444
 874, 0.833333, 0.944444
 875, 0.854167, 0.944444
 876, 0.875000, 0.944444
 877, 0.895833, 0.944444
 878, 0.916667, 0.944444
 879, 0.937500, 0.944444
 880, 0.958333, 0.944444
 881, 0.979167, 0.944444
 882, 1.000000, 0.944444
 883, 0.000000, 1.000000
 884, 0.020833, 1.000000
 885, 0.041667, 1.000000
 886, 0.062500, 1.000000
 887, 0.083333, 1.000000
 888, 0.104167, 1.000000
 889, 0.125000, 1.000000
 890, 0.145833, 1.000000
 891, 0.166667, 1.000000
 892, 0.187500, 1.000000
 893, 0.208333, 1.000000
 894, 0.229167, 1.000000
 895, 0.250000, 1.000000
 896, 0.270833, 1.000000
 897, 0.291667, 1.000000
 898, 0.312500, 1.000000
 899, 0.333333, 1.000000
 900, 0.354167, 1.000000
 901, 0.375000, 1.000000
 902, 0.395833, 1.000000
 903, 0.416667, 1.000000
 904, 0.437500, 1.000000
 905, 0.458333, 1.000000
 906, 0.479167, 1.000000
 907, 0.500000, 1.000000
 908, 0.520833, 1.000000
 909, 0.541667, 1.000000
 910, 0.562500, 1.000000
 911, 0.583333, 1.000000
 912, 0.604167, 1.000000
 913, 0.625000, 1.000000
 914, 0.645833, 1.000000
 915, 0.666667, 1.000000
 916, 0.687500, 1.000000
 917, 0.708333, 1.000000
 918, 0.729167, 1.000000
 919, 0.750000, 1.000000
 920, 0.770833, 1.000000
 921, 0.791667, 1.000000
 922, 0.812500, 1.000000
 923, 0.833333, 1.000000
 924, 0.854167, 1.000000
 925, 0.875000, 1.000000
 926, 0.895833, 1.000000
 927, 0.916667, 1.000000
 928, 0.937500, 1.000000
 929, 0.958333, 1.000000
 930, 0.979167, 1.000000
 931, 1.000000, 1.000000
*ELEMENT, TYPE=CPE4
 1, 1, 2, 51, 50
 2, 2, 3, 52, 51
 3, 3, 4, 53, 52
 4, 4, 5, 54, 53
 5, 5, 6, 55, 54
 6, 6, 7, 56, 55
 7, 7, 8, 57, 56
 8, 8, 9, 58, 57
 9, 9, 10, 59, 58
 10, 10, 11, 60, 59
 11, 11, 12, 61, 60
 12, 12, 13, 62, 61
 13, 13, 14, 63, 62
 14, 14, 15, 64, 63
 15, 15, 16, 65, 64
 16, 16, 17, 66, 65
 17, 17, 18, 67, 66
 18, 18, 19, 68, 67
 19, 19, 20, 69, 68
 20, 20, 21, 70, 69
 21, 21, 22, 71, 70
 22, 22, 23, 72, 71
 23, 23, 24, 73, 72
 24, 24, 25, 74, 73
 25, 25, 26, 75, 74
 26, 26, 27, 76, 75
 27, 27, 28, 77, 76
 28, 28, 29, 78, 77
 29, 29, 30, 79, 78
 30, 30, 31, 80, 79
 31, 31, 32, 81, 80
 32, 32, 33, 82, 81
 33, 33, 34, 83, 82
 34, 34, 35, 84, 83
 35, 35, 36, 85, 84
 36, 36, 37, 86, 85
 37, 37, 38, 87, 86
 38, 38, 39, 88, 87
 39, 39, 40, 89, 88
 40, 40, 41, 90, 89
 41, 41, 42, 91, 90
 42, 42, 43, 92, 91
 43, 43, 44, 93, 92
 44, 44, 45, 94, 93
 45, 45, 46, 95, 94
 46, 46, 47, 96, 95
 47, 47, 48, 97, 96
 48, 48, 49, 98, 97
 49, 50, 51, 100, 99
 50, 51, 52, 101, 100
 51, 52, 53, 102, 101
 52, 53, 54, 103, 102
 53, 54, 55, 104, 103
 54, 55, 56, 105, 104
 55, 56, 57, 106, 105
 56, 57, 58, 107, 106
 57, 58, 59, 108, 107
 58, 59, 60, 109, 108
 59, 60, 61, 110, 109
 60, 61, 62, 111, 110
 61, 62, 63, 112, 111
 62, 63, 64, 113, 112
 63, 64, 65, 114, 113
 64, 65, 66, 115, 114
 65, 66, 67, 116, 115
 66, 67, 68, 117, 116
 67, 68, 69, 118, 117
 68, 69, 70, 119, 118
 69, 70, 71, 120, 119
 70, 71, 72, 121, 120
 71, 72, 73, 122, 121
 72, 73, 74, 123, 122
 73, 74, 75, 124, 123
 74, 75, 76, 125, 124
 75, 76, 77, 126, 125
 76, 77, 78, 127, 126
 77, 78, 79, 128, 127
 78, 79, 80, 129, 128
 79, 80, 81, 130, 129
 80, 81, 82, 131, 130
 81, 82, 83, 132, 131
 82, 83, 84, 133, 132
 83, 84, 85, 134, 133
 84, 85, 86, 135, 134
 85, 86, 87, 136, 135
 86, 87, 88, 137, 136
 87, 88, 89, 138, 137
 88, 89, 90, 139, 138
 89, 90, 91, 140, 139
 90, 91, 92, 141, 140
 91, 92, 93, 142, 141
 92, 93, 94, 143, 142
 93, 94, 95, 144, 143
 94, 95, 96, 145, 144
 95, 96, 97, 146, 145
 96, 97, 98, 147, 146
 97, 99, 100, 149, 148
 98, 100, 101, 150, 149
 99, 101, 102, 151, 150
 100, 102, 103, 152, 151
 101, 103, 104, 153, 152
 102, 104, 105, 154, 153
 103, 105, 106, 155, 154
 104, 106, 107, 156, 155
 105, 107, 108, 157, 156
 106, 108, 109, 158, 157
 107, 109, 110, 159, 158
 108, 110, 111, 160, 159
 109, 111, 112, 161, 160
 110, 112, 113, 162, 161
 111, 113, 114, 163, 162
 112, 114, 115, 164, 163
 113, 115, 116, 165, 164
 114, 116, 117, 166, 165
 115, 117, 118, 167, 166
 116, 118, 119, 168, 167
 117, 119, 120, 169, 168
 118, 120, 121, 170, 169
 119, 121, 122, 171, 170
 120, 122, 123, 172, 171
 121, 123, 124, 173, 172
 122, 124, 125, 174, 173
 123, 125, 126, 175, 174
 124, 126, 127, 176, 175
 125, 127, 128, 177, 176
 126, 128, 129, 178, 177
 127, 129, 130, 179, 178
 128, 130, 131, 180, 179
 129, 131, 132, 181, 180
 130, 132, 133, 182, 181
 131, 133, 134, 183, 182
 132, 134, 135, 184, 183
 133, 135, 136, 185, 184
 134, 136, 137, 186, 185
 135, 137, 138, 187, 186
 136, 138, 139, 188, 187
 137, 139, 140, 189, 188
 138, 140, 141, 190, 189
 139, 141, 142, 191, 190
 140, 142, 143, 192, 191
 141, 143, 144, 193, 192
 142, 144, 145, 194, 193
 143, 145, 146, 195, 194
 144, 146, 147, 196, 195
 145, 148, 149, 198, 197
 146, 149, 150, 199, 198
 147, 150, 151, 200, 199
 148, 151, 152, 201, 200
 149, 152, 153, 202, 201
 150, 153, 154, 203, 202
 151, 154, 155, 204, 203
 152, 155, 156, 205, 204
 153, 156, 157, 206, 205
 154, 157, 158, 207, 206
 155, 158, 159, 208, 207
 156, 159, 160, 209, 208
 157, 160, 161, 210, 209
 158, 161, 162, 211, 210
 159, 162, 163, 212, 211
 160, 163, 164, 213, 212
 161, 164, 165, 214, 213
 162, 165, 166, 215, 214
 163, 166, 167, 216, 215
 164, 167, 168, 217, 216
 165, 168, 169, 218, 217
 166, 169, 170, 219, 218
 167, 170, 171, 220, 219
 168, 171, 172, 221, 220
 169, 172, 173, 222, 221
 170, 173, 174, 223, 222
 171, 174, 175, 224, 223
 172, 175, 176, 225, 224
 173, 176, 177, 226, 225
 174, 177, 178, 227, 226
 175, 178, 179, 228, 227
 176, 179, 180, 229, 228
 177, 180, 181, 230, 229
 178, 181, 182, 231, 230
 179, 182, 183, 232, 231
 180, 183, 184, 233, 232
 181, 184, 185, 234, 233
 182, 185, 186, 235, 234
 183, 186, 187, 236, 235
 184, 187, 188, 237, 236
 185, 188, 189, 238, 237
 186, 189, 190, 239, 238
 187, 190, 191, 240, 239
 188, 191, 192, 241, 240
 189, 192, 193, 242, 241
 190, 193, 194, 243, 242
 191, 194, 195, 244, 243
 192, 195, 196, 245, 244
 193, 197, 198, 247, 246
 194, 198, 199, 248, 247
 195, 199, 200, 249, 248
 196, 200, 201, 250, 249
 197, 201, 202, 251, 250
 198, 202, 203, 252, 251
 199, 203, 204, 253, 252
 200, 204, 205, 254, 253
 201, 205, 206, 255, 254
 202, 206, 207, 256, 255
 203, 207, 208, 257, 256
 204, 208, 209, 258, 257
 205, 209, 210, 259, 258
 206, 210, 211, 260, 259
 207, 211, 212, 261, 260
 208, 212, 213, 262, 261
 209, 213, 214, 263, 262
 210, 214, 215, 264, 263
 211, 215, 216, 265, 264
 212, 216, 217, 266, 265
 213, 217, 218, 267, 266
 214, 218, 219, 268, 267
 215, 219, 220, 269, 268
 216, 220, 221, 270, 269
 217, 221, 222, 271, 270
 218, 222, 223, 272, 271
 219, 223, 224, 273, 272
 220, 224, 225, 274, 273
 221, 225, 226, 275, 274
 222, 226, 227, 276, 275
 223, 227, 228, 277, 276
 224, 228, 229, 278, 277
 225, 229, 230, 279, 278
 226, 230, 231, 280, 279
 227, 231, 232, 281, 280
 228, 232, 233, 282, 281
 229, 233, 234, 283, 282
 230, 234, 235, 284, 283
 231, 235, 236, 285, 284
 232, 236, 237, 286, 285
 233, 237, 238, 287, 286
 234, 238, 239, 288, 287
 235, 239, 240, 289, 288
 236, 240, 241, 290, 289
 237, 241, 242, 291, 290
 238, 242, 243, 292, 291
 239, 243, 244, 293, 292
 240, 244, 245, 294, 293
 241, 246, 247, 296, 295
 242, 247, 248, 297, 296
 243, 248, 249, 298, 297
 244, 249, 250, 299, 298
 245, 250, 251, 300, 299
 246, 251, 252, 301, 300
 247, 252, 253, 302, 301
 248, 253, 254, 303, 302
 249, 254, 255, 304, 303
 250, 255, 256, 305, 304
 251, 256, 257, 306, 305
 252, 257, 258, 307, 306
 253, 258, 259, 308, 307
 254, 259, 260, 309, 308
 255, 260, 261, 310, 309
 256, 261, 262, 311, 310
 257, 262, 263, 312, 311
 258, 263, 264, 313, 312
 259, 264, 265, 314, 313
 260, 265, 266, 315, 314
 261, 266, 267, 316, 315
 262, 267, 268, 317, 316
 263, 268, 269, 318, 317
 264, 269, 270, 319, 318
 265, 270, 271, 320, 319
 266, 271, 272, 321, 320
 267, 272, 273, 322, 321
 268, 273, 274, 323, 322
 269, 274, 275, 324, 323
 270, 275, 276, 325, 324
 271, 276, 277, 326, 325
 272, 277, 278, 327, 326
 273, 278, 279, 328, 327
 274, 279, 280, 329, 328
 275, 280, 281, 330, 329
 276, 281, 282, 331, 330
 277, 282, 283, 332, 331
 278, 283, 284, 333, 332
 279, 284, 285, 334, 333
 280, 285, 286, 335, 334
 281, 286, 287, 336, 335
 282, 287, 288, 337, 336
 283, 288, 289, 338, 337
 284, 289, 290, 339, 338
 285, 290, 291, 340, 339
 286, 291, 292, 341, 340
 287, 292, 293, 342, 341
 288, 293, 294, 343, 342
 289, 295, 296, 345, 344
 290, 296, 297, 346, 345
 291, 297, 298, 347, 346
 292, 298, 299, 348, 347
 293, 299, 300, 349, 348
 294, 300, 301, 350, 349
 295, 301, 302, 351, 350
 296, 302, 303, 352, 351
 297, 303, 304, 353, 352
 298, 304, 305, 354, 353
 299, 305, 306, 355, 354
 300, 306, 307, 356, 355
 301, 307, 308, 357, 356
 302, 308, 309, 358, 357
 303, 309, 310, 359, 358
 304, 310, 311, 360, 359
 305, 311, 312, 361, 360
 306, 312, 313, 362, 361
 307, 313, 314, 363, 362
 308, 314, 315, 364, 363
 309, 315, 316, 365, 364
 310, 316, 317, 366, 365
 311, 317, 318, 367, 366
 312, 318, 319, 368, 367
 313, 319, 320, 369, 368
 314, 320, 321, 370, 369
 315, 321, 322, 371, 370
 316, 322, 323, 372, 371
 317, 323, 324, 373, 372
 318, 324, 325, 374, 373
 319, 325, 326, 375, 374
 320, 326, 327, 376, 375
 321, 327, 328, 377, 376
 322, 328, 329, 378, 377
 323, 329, 330, 379, 378
 324, 330, 331, 380, 379
 325, 331, 332, 381, 380
 326, 332, 333, 382, 381
 327, 333, 334, 383, 382
 328, 334, 335, 384, 383
 329, 335, 336, 385, 384
 330, 336, 337, 386, 385
 331, 337, 338, 387, 386
 332, 338, 339, 388, 387
 333, 339, 340, 389, 388
 334, 340, 341, 390, 389
 335, 341, 342, 391, 390
 336, 342, 343, 392, 391
 337, 344, 345, 394, 393
 338, 345, 346, 395, 394
 339, 346, 347, 396, 395
 340, 347, 348, 397, 396
 341, 348, 349, 398, 397
 342, 349, 350, 399, 398
 343, 350, 351, 400, 399
 344, 351, 352, 401, 400
 345, 352, 353, 402, 401
 346, 353, 354, 403, 402
 347, 354, 355, 404, 403
 348, 355, 356, 405, 404
 349, 356, 357, 406, 405
 350, 357, 358, 407, 406
 351, 358, 359, 408, 407
 352, 359, 360, 409, 408
 353, 360, 361, 410, 409
 354, 361, 362, 411, 410
 355, 362, 363, 412, 411
 356, 363, 364, 413, 412
 357, 364, 365, 414, 413
 358, 365, 366, 415, 414
 359, 366, 367, 416, 415
 360, 367, 368, 417, 416
 361, 368, 369, 418, 417
 362, 369, 370, 419, 418
 363, 370, 371, 420, 419
 364, 371, 372, 421, 420
 365, 372, 373, 422, 421
 366, 373, 374, 423, 422
 367, 374, 375, 424, 423
 368, 375, 376, 425, 424
 369, 376, 377, 426, 425
 370, 377, 378, 427, 426
 371, 378, 379, 428, 427
 372, 379, 380, 429, 428
 373, 380, 381, 430, 429
 374, 381, 382, 431, 430
 375, 382, 383, 432, 431
 376, 383, 384, 433, 432
 377, 384, 385, 434, 433
 378, 385, 386, 435, 434
 379, 386, 387, 436, 435
 380, 387, 388, 437, 436
 381, 388, 389, 438, 437
 382, 389, 390, 439, 438
 383, 390, 391, 440, 439
 384, 391, 392, 441, 440
 385, 393, 394, 443, 442
 386, 394, 395, 444, 443
 387, 395, 396, 445, 444
 388, 396, 397, 446, 445
 389, 397, 398, 447, 446
 390, 398, 399, 448, 447
 391, 399, 400, 449, 448
 392, 400, 401, 450, 449
 393, 401, 402, 451, 450
 394, 402, 403, 452, 451
 395, 403, 404, 453, 452
 396, 404, 405, 454, 453
 397, 405, 406, 455, 454
 398, 406, 407, 456, 455
 399, 407, 408, 457, 456
 400, 408, 409, 458, 457
 401, 409, 410, 459, 458
 402, 410, 411, 460, 459
 403, 411, 412, 461, 460
 404, 412, 413, 462, 461
 405, 413, 414, 463, 462
 406, 414, 415, 464, 463
 407, 415, 416, 465, 464
 408, 416, 417, 466, 465
 409, 417, 418, 467, 466
 410, 418, 419, 468, 467
 411, 419, 420, 469, 468
 412, 420, 421, 470, 469
 413, 421, 422, 471, 470
 414, 422, 423, 472, 471
 415, 423, 424, 473, 472
 416, 424, 425, 474, 473
 417, 425, 426, 475, 474
 418, 426, 427, 476, 475
 419, 427, 428, 477, 476
 420, 428, 429, 478, 477
 421, 429, 430, 479, 478
 422, 430, 431, 480, 479
 423, 431, 432, 481, 480
 424, 432, 433, 482, 481
 425, 433, 434, 483, 482
 426, 434, 435, 484, 483
 427, 435, 436, 485, 484
 428, 436, 437, 486, 485
 429, 437, 438, 487, 486
 430, 438, 439, 488, 487
 431, 439, 440, 489, 488
 432, 440, 441, 490, 489
 433, 442, 443, 492, 491
 434, 443, 444, 493, 492
 435, 444, 445, 494, 493
 436, 445, 446, 495, 494
 437, 446, 447, 496, 495
 438, 447, 448, 497, 496
 439, 448, 449, 498, 497
 440, 449, 450, 499, 498
 441, 450, 451, 500, 499
 442, 451, 452, 501, 500
 443, 452, 453, 502, 501
 444, 453, 454, 503, 502
 445, 454, 455, 504, 503
 446, 455, 456, 505, 504
 447, 456, 457, 506, 505
 448, 457, 458, 507, 506
 449, 458, 459, 508, 507
 450, 459, 460, 509, 508
 451, 460, 461, 510, 509
 452, 461, 462, 511, 510
 453, 462, 463, 512, 511
 454, 463, 464, 513, 512
 455, 464, 465, 514, 513
 456, 465, 466, 515, 514
 457, 466, 467, 516, 515
 458, 467, 468, 517, 516
 459, 468, 469, 518, 517
 460, 469, 470, 519, 518
 461, 470, 471, 520, 519
 462, 471, 472, 521, 520
 463, 472, 473, 522, 521
 464, 473, 474, 523, 522
 465, 474, 475, 524, 523
 466, 475, 476, 525, 524
 467, 476, 477, 526, 525
 468, 477, 478, 527, 526
 469, 478, 479, 528, 527
 470, 479, 480, 529, 528
 471, 480, 481, 530, 529
 472, 481, 482, 531, 530
 473, 482, 483, 532, 531
 474, 483, 484, 533, 532
 475, 484, 485, 534, 533
 476, 485, 486, 535, 534
 477, 486, 487, 536, 535
 478, 487, 488, 537, 536
 479, 488, 489, 538, 537
 480, 489, 490, 539, 538
 481, 491, 492, 541, 540
 482, 492, 493, 542, 541
 483, 493, 494, 543, 542
 484, 494, 495, 544, 543
 485, 495, 496, 545, 544
 486, 496, 497, 546, 545
 487, 497, 498, 547, 546
 488, 498, 499, 548, 547
 489, 499, 500, 549, 548
 490, 500, 501, 550, 549
 491, 501, 502, 551, 550
 492, 502, 503, 552, 551
 493, 503, 504, 553, 552
 494, 504, 505, 554, 553
 495, 505, 506, 555, 554
 496, 506, 507, 556, 555
 497, 507, 508, 557, 556
 498, 508, 509, 558, 557
 499, 509, 510, 559, 558
 500, 510, 511, 560, 559
 501, 511, 512, 561, 560
 502, 512, 513, 562, 561
 503, 513, 514, 563, 562
 504, 514, 515, 564, 563
 505, 515, 516, 565, 564
 506, 516, 517, 566, 565
 507, 517, 518, 567, 566
 508, 518, 519, 568, 567
 509, 519, 520, 569, 568
 510, 520, 521, 570, 569
 511, 521, 522, 571, 570
 512, 522, 523, 572, 571
 513, 523, 524, 573, 572
 514, 524, 525, 574, 573
 515, 525, 526, 575, 574
 516, 526, 527, 576, 575
 517, 527, 528, 577, 576
 518, 528, 529, 578, 577
 519, 529, 530, 579, 578
 520, 530, 531, 580, 579
 521, 531, 532, 581, 580
 522, 532, 533, 582, 581
 523, 533, 534, 583, 582
 524, 534, 535, 584, 583
 525, 535, 536, 585, 584
 526, 536, 537, 586, 585
 527, 537, 538, 587, 586
 528, 538, 539, 588, 587
 529, 540, 541, 590, 589
 530, 541, 542, 591, 590
 531, 542, 543, 592, 591
 532, 543, 544, 593, 592
 533, 544, 545, 594, 593
 534, 545, 546, 595, 594
 535, 546, 547, 596, 595
 536, 547, 548, 597, 596
 537, 548, 549, 598, 597
 538, 549, 550, 599, 598
 539, 550, 551, 600, 599
 540, 551, 552, 601, 600
 541, 552, 553, 602, 601
 542, 553, 554, 603, 602
 543, 554, 555, 604, 603
 544, 555, 556, 605, 604
 545, 556, 557, 606, 605
 546, 557, 558, 607, 606
 547, 558, 559, 608, 607
 548, 559, 560, 609, 608
 549, 560, 561, 610, 609
 550, 561, 562, 611, 610
 551, 562, 563, 612, 611
 552, 563, 564, 613, 612
 553, 564, 565, 614, 613
 554, 565, 566, 615, 614
 555, 566, 567, 616, 615
 556, 567, 568, 617, 616
 557, 568, 569, 618, 617
 558, 569, 570, 619, 618
 559, 570, 571, 620, 619
 560, 571, 572, 621, 620
 561, 572, 573, 622, 621
 562, 573, 574, 623, 622
 563, 574, 575, 624, 623
 564, 575, 576, 625, 624
 565, 576, 577, 626, 625
 566, 577, 578, 627, 626
 567, 578, 579, 628, 627
 568, 579, 580, 629, 628
 569, 580, 581, 630, 629
 570, 581, 582, 631, 630
 571, 582, 583, 632, 631
 572, 583, 584, 633, 632
 573, 584, 585, 634, 633
 574, 585, 586, 635, 634
 575, 586, 587, 636, 635
 576, 587, 588, 637, 636
 577, 589, 590, 639, 638
 578, 590, 591, 640, 639
 579, 591, 592, 641, 640
 580, 592, 593, 642, 641
 581, 593, 594, 643, 642
 582, 594, 595, 644, 643
 583, 595, 596, 645, 644
 584, 596, 597, 646, 645
 585, 597, 598, 647, 646
 586, 598, 599, 648, 647
 587, 599, 600, 649, 648
 588, 600, 601, 650, 649
 589, 601, 602, 651, 650
 590, 602, 603, 652, 651
 591, 603, 604, 653, 652
 592, 604, 605, 654, 653
 593, 605, 606, 655, 654
 594, 606, 607, 656, 655
 595, 607, 608, 657, 656
 596, 608, 609, 658, 657
 597, 609, 610, 659, 658
 598, 610, 611, 660, 659
 599, 611, 612, 661, 660
 600, 612, 613, 662, 661
 601, 613, 614, 663, 662
 602, 614, 615, 664, 663
 603, 615, 616, 665, 664
 604, 616, 617, 666, 665
 605, 617, 618, 667, 666
 606, 618, 619, 668, 667
 607, 619, 620, 669, 668
 608, 620, 621, 670, 669
 609, 621, 622, 671, 670
 610, 622, 623, 672, 671
 611, 623, 624, 673, 672
 612, 624, 625, 674, 673
 613, 625, 626, 675, 674
 614, 626, 627, 676, 675
 615, 627, 628, 677, 676
 616, 628, 629, 678, 677
 617, 629, 630, 679, 678
 618, 630, 631, 680, 679
 619, 631, 632, 681, 680
 620, 632, 633, 682, 681
 621, 633, 634, 683, 682
 622, 634, 635, 684, 683
 623, 635, 636, 685, 684
 624, 636, 637, 686, 685
 625, 638, 639, 688, 687
 626, 639, 640, 689, 688
 627, 640, 641, 690, 689
 628, 641, 642, 691, 690
 629, 642, 643, 692, 691
 630, 643, 644, 693, 692
 631, 644, 645, 694, 693
 632, 645, 646, 695, 694
 633, 646, 647, 696, 695
 634, 647, 648, 697, 696
 635, 648, 649, 698, 697
 636, 649, 650, 699, 698
 637, 650, 651, 700, 699
 638, 651, 652, 701, 700
 639, 652, 653, 702, 701
 640, 653, 654, 703, 702
 641, 654, 655, 704, 703
 642, 655, 656, 705, 704
 643, 656, 657, 706, 705
 644, 657, 658, 707, 706
 645, 658, 659, 708, 707
 646, 659, 660, 709, 708
 647, 660, 661, 710, 709
 648, 661, 662, 711, 710
 649, 662, 663, 712, 711
 650, 663, 664, 713, 712
 651, 664, 665, 714, 713
 652, 665, 666, 715, 714
 653, 666, 667, 716, 715
 654, 667, 668, 717, 716
 655, 668, 669, 718, 717
 656, 669, 670, 719, 718
 657, 670, 671, 720, 719
 658, 671, 672, 721, 720
 659, 672, 673, 722, 721
 660, 673, 674, 723, 722
 661, 674, 675, 724, 723
 662, 675, 676, 725, 724
 663, 676, 677, 726, 725
 664, 677, 678, 727, 726
 665, 678, 679, 728, 727
 666, 679, 680, 729, 728
 667, 680, 681, 730, 729
 668, 681, 682, 731, 730
 669, 682, 683, 732, 731
 670, 683, 684, 733, 732
 671, 684, 685, 734, 733
 672, 685, 686, 735, 734
 673, 687, 688, 737, 736
 674, 688, 689, 738, 737
 675, 689, 690, 739, 738
 676, 690, 691, 740, 739
 677, 691, 692, 741, 740
 678, 692, 693, 742, 741
 679, 693, 694, 743, 742
 680, 694, 695, 744, 743
 681, 695, 696, 745, 744
 682, 696, 697, 746, 745
 683, 697, 698, 747, 746
 684, 698, 699, 748, 747
 685, 699, 700, 749, 748
 686, 700, 701, 750, 749
 687, 701, 702, 751, 750
 688, 702, 703, 752, 751
 689, 703, 704, 753, 752
 690, 704, 705, 754, 753
 691, 705, 706, 755, 754
 692, 706, 707, 756, 755
 693, 707, 708, 757, 756
 694, 708, 709, 758, 757
 695, 709, 710, 759, 758
 696, 710, 711, 760, 759
 697, 711, 712, 761, 760
 698, 712, 713, 762, 761
 699, 713, 714, 763, 762
 700, 714, 715, 764, 763
 701, 715, 716, 765, 764
 702, 716, 717, 766, 765
 703, 717, 718, 767, 766
 704, 718, 719, 768, 767
 705, 719, 720, 769, 768
 706, 720, 721, 770, 769
 707, 721, 722, 771, 770
 708, 722, 723, 772, 771
 709, 723, 724, 773, 772
 710, 724, 725, 774, 773
 711, 725, 726, 775, 774
 712, 726, 727, 776, 775
 713, 727, 728, 777, 776
 714, 728, 729, 778, 777
 715, 729, 730, 779, 778
 716, 730, 731, 780, 779
 717, 731, 732, 781, 780
 718, 732, 733, 782, 781
 719, 733, 734, 783, 782
 720, 734, 735, 784, 783
 721, 736, 737, 786, 785
 722, 737, 738, 787, 786
 723, 738, 739, 788, 787
 724, 739, 740, 789, 788
 725, 740, 741, 790, 789
 726, 741, 742, 791, 790
 727, 742, 743, 792, 791
 728, 743, 744, 793, 792
 729, 744, 745, 794, 793
 730, 745, 746, 795, 794
 731, 746, 747, 796, 795
 732, 747, 748, 797, 796
 733, 748, 749, 798, 797
 734, 749, 750, 799, 798
 735, 750, 751, 800, 799
 736, 751, 752, 801, 800
 737, 752, 753, 802, 801
 738, 753, 754, 803, 802
 739, 754, 755, 804, 803
 740, 755, 756, 805, 804
 741, 756, 757, 806, 805
 742, 757, 758, 807, 806
 743, 758, 759, 808, 807
 744, 759, 760, 809, 808
 745, 760, 761, 810, 809
 746, 761, 762, 811, 810
 747, 762, 763, 812, 811
 748, 763, 764, 813, 812
 749, 764, 765, 814, 813
 750, 765, 766, 815, 814
 751, 766, 767, 816, 815
 752, 767, 768, 817, 816
 753, 768, 769, 818, 817
 754, 769, 770, 819, 818
 755, 770, 771, 820, 819
 756, 771, 772, 821, 820
 757, 772, 773, 822, 821
 758, 773, 774, 823, 822
 759, 774, 775, 824, 823
 760, 775, 776, 825, 824
 761, 776, 777, 826, 825
 762, 777, 778, 827, 826
 763, 778, 779, 828, 827
 764, 779, 780, 829, 828
 765, 780, 781, 830, 829
 766, 781, 782, 831, 830
 767, 782, 783, 832, 831
 768, 783, 784, 833, 832
 769, 785, 786, 835, 834
 770, 786, 787, 836, 835
 771, 787, 788, 837, 836
 772, 788, 789, 838, 837
 773, 789, 790, 839, 838
 774, 790, 791, 840, 839
 775, 791, 792, 841, 840
 776, 792, 793, 842, 841
 777, 793, 794, 843, 842
 778, 794, 795, 844, 843
 779, 795, 796, 845, 844
 780, 796, 797, 846, 845
 781, 797, 798, 847, 846
 782, 798, 799, 848, 847
 783, 799, 800, 849, 848
 784, 800, 801, 850, 849
 785, 801, 802, 851, 850
 786, 802, 803, 852, 851
 787, 803, 804, 853, 852
 788, 804, 805, 854, 853
 789, 805, 806, 855, 854
 790, 806, 807, 856, 855
 791, 807, 808, 857, 856
 792, 808, 809, 858, 857
 793, 809, 810, 859, 858
 794, 810, 811, 860, 859
 795, 811, 812, 861, 860
 796, 812, 813, 862, 861
 797, 813, 814, 863, 862
 798, 814, 815, 864, 863
 799, 815, 816, 865, 864
 800, 816, 817, 866, 865
 801, 817, 818, 867, 866
 802, 818, 819, 868, 867
 803, 819, 820, 869, 868
 804, 820, 821, 870, 869
 805, 821, 822, 871, 870
 806, 822, 823, 872, 871
 807, 823, 824, 873, 872
 808, 824, 825, 874, 873
 809, 825, 826, 875, 874
 810, 826, 827, 876, 875
 811, 827, 828, 877, 876
 812, 828, 829, 878, 877
 813, 829, 830, 879, 878
 814, 830, 831, 880, 879
 815, 831, 832, 881, 880
 816, 832, 833, 882, 881
 817, 834, 835, 884, 883
 818, 835, 836, 885, 884
 819, 836, 837, 886, 885
 820, 837, 838, 887, 886
 821, 838, 839, 888, 887
 822, 839, 840, 889, 888
 823, 840, 841, 890, 889
 824, 841, 842, 891, 890
 825, 842, 843, 892, 891
 826, 843, 844, 893, 892
 827, 844, 845, 894, 893
 828, 845, 846, 895, 894
 829, 846, 847, 896, 895
 830, 847, 848, 897, 896
 831, 848, 849, 898, 897
 832, 849, 850, 899, 898
 833, 850, 851, 900, 899
 834, 851, 852, 901, 900
 835, 852, 853, 902, 901
 836, 853, 854, 903, 902
 837, 854, 855, 904, 903
 838, 855, 856, 905, 904
 839, 856, 857, 906, 905
 840, 857, 858, 907, 906
 841, 858, 859, 908, 907
 842, 859, 860, 909, 908
 843, 860, 861, 910, 909
 844, 861, 862, 911, 910
 845, 862, 863, 912, 911
 846, 863, 864, 913, 912
 847, 864, 865, 914, 913
 848, 865, 866, 915, 914
 849, 866, 867, 916, 915
 850, 867, 868, 917, 916
 851, 868, 869, 918, 917
 852, 869, 870, 919, 918
 853, 870, 871, 920, 919
 854, 871, 872, 921, 920
 855, 872, 873, 922, 921
 856, 873, 874, 923, 922
 857, 874, 875, 924, 923
 858, 875, 876, 925, 924
 859, 876, 877, 926, 925
 860, 877, 878, 927, 926
 861, 878, 879, 928, 927
 862, 879, 880, 929, 928
 863, 880, 881, 930, 929
 864, 881, 882, 931, 930
*ELSET, ELSET=ROW0
 1,2,3,4,5,6,7,8,9,10,11,12,13,14,15,16
 17,18,19,20,21,22,23,24,25,26,27,28,29,30,31,32
 33,34,35,36,37,38,39,40,41,42,43,44,45,46,47,48
*ELSET, ELSET=ROW1
 49,50,51,52,53,54,55,56,57,58,59,60,61,62,63,64
 65,66,67,68,69,70,71,72,73,74,75,76,77,78,79,80
 81,82,83,84,85,86,87,88,89,90,91,92,93,94,95,96
*ELSET, ELSET=ROW2
 97,98,99,100,101,102,103,104,105,106,107,108,109,110,111,112
 113,114,115,116,117,118,119,120,121,122,123,124,125,126,127,128
 129,130,131,132,133,134,135,136,137,138,139,140,141,142,143,144
*ELSET, ELSET=ROW3
 145,146,147,148,149,150,151,152,153,154,155,156,157,158,159,160
 161,162,163,164,165,166,167,168,169,170,171,172,173,174,175,176
 177,178,179,180,181,182,183,184,185,186,187,188,189,190,191,192
*ELSET, ELSET=ROW4
 193,194,195,196,197,198,199,200,201,202,203,204,205,206,207,208
 209,210,211,212,213,214,215,216,217,218,219,220,221,222,223,224
 225,226,227,228,229,230,231,232,233,234,235,236,237,238,239,240
*ELSET, ELSET=ROW5
 241,242,243,244,245,246,247,248,249,250,251,252,253,254,255,256
 257,258,259,260,261,262,263,264,265,266,267,268,269,270,271,272
 273,274,275,276,277,278,279,280,281,282,283,284,285,286,287,288
*ELSET, ELSET=ROW6
 289,290,291,292,293,294,295,296,297,298,299,300,301,302,303,304
 305,306,307,308,309,310,311,312,313,314,315,316,317,318,319,320
 321,322,323,324,325,326,327,328,329,330,331,332,333,334,335,336
*ELSET, ELSET=ROW7
 337,338,339,340,341,342,343,344,345,346,347,348,349,350,351,352
 353,354,355,356,357,358,359,360,361,362,363,364,365,366,367,368
 369,370,371,372,373,374,375,376,377,378,379,380,381,382,383,384
*ELSET, ELSET=ROW8
 385,386,387,388,389,390,391,392,393,394,395,396,397,398,399,400
 401,402,403,404,405,406,407,408,409,410,411,412,413,414,415,416
 417,418,419,420,421,422,423,424,425,426,427,428,429,430,431,432
*ELSET, ELSET=ROW9
 433,434,435,436,437,438,439,440,441,442,443,444,445,446,447,448
 449,450,451,452,453,454,455,456,457,458,459,460,461,462,463,464
 465,466,467,468,469,470,471,472,473,474,475,476,477,478,479,480
*ELSET, ELSET=ROW10
 481,482,483,484,485,486,487,488,489,490,491,492,493,494,495,496
 497,498,499,500,501,502,503,504,505,506,507,508,509,510,511,512
 513,514,515,516,517,518,519,520,521,522,523,524,525,526,527,528
*ELSET, ELSET=ROW11
 529,530,531,532,533,534,535,536,537,538,539,540,541,542,543,544
 545,546,547,548,549,550,551,552,553,554,555,556,557,558,559,560
 561,562,563,564,565,566,567,568,569,570,571,572,573,574,575,576
*ELSET, ELSET=ROW12
 577,578,579,580,581,582,583,584,585,586,587,588,589,590,591,592
 593,594,595,596,597,598,599,600,601,602,603,604,605,606,607,608
 609,610,611,612,613,614,615,616,617,618,619,620,621,622,623,624
*ELSET, ELSET=ROW13
 625,626,627,628,629,630,631,632,633,634,635,636,637,638,639,640
 641,642,643,644,645,646,647,648,649,650,651,652,653,654,655,656
 657,658,659,660,661,662,663,664,665,666,667,668,669,670,671,672
*ELSET, ELSET=ROW14
 673,674,675,676,677,678,679,680,681,682,683,684,685,686,687,688
 689,690,691,692,693,694,695,696,697,698,699,700,701,702,703,704
 705,706,707,708,709,710,711,712,713,714,715,716,717,718,719,720
*ELSET, ELSET=ROW15
 721,722,723,724,725,726,727,728,729,730,731,732,733,734,735,736
 737,738,739,740,741,742,743,744,745,746,747,748,749,750,751,752
 753,754,755,756,757,758,759,760,761,762,763,764,765,766,767,768
*ELSET, ELSET=ROW16
 769,770,771,772,773,774,775,776,777,778,779,780,781,782,783,784
 785,786,787,788,789,790,791,792,793,794,795,796,797,798,799,800
 801,802,803,804,805,806,807,808,809,810,811,812,813,814,815,816
*ELSET, ELSET=ROW17
 817,818,819,820,821,822,823,824,825,826,827,828,829,830,831,832
 833,834,835,836,837,838,839,840,841,842,843,844,845,846,847,848
 849,850,851,852,853,854,855,856,857,858,859,860,861,862,863,864
*ORIENTATION, NAME=ORI, SYSTEM=RECTANGULAR, DEFINITION=COORDINATES
 1.0, 0.0, 0.0, 0.0, 1.0, 0.0
 3, 0.0
*SOLID SECTION, ELSET=ROW0, MATERIAL=MAT0, ORIENTATION=ORI
*SOLID SECTION, ELSET=ROW1, MATERIAL=MAT1, ORIENTATION=ORI
*SOLID SECTION, ELSET=ROW2, MATERIAL=MAT2, ORIENTATION=ORI
*SOLID SECTION, ELSET=ROW3, MATERIAL=MAT3, ORIENTATION=ORI
*SOLID SECTION, ELSET=ROW4, MATERIAL=MAT4, ORIENTATION=ORI
*SOLID SECTION, ELSET=ROW5, MATERIAL=MAT5, ORIENTATION=ORI
*SOLID SECTION, ELSET=ROW6, MATERIAL=MAT6, ORIENTATION=ORI
*SOLID SECTION, ELSET=ROW7, MATERIAL=MAT7, ORIENTATION=ORI
*SOLID SECTION, ELSET=ROW8, MATERIAL=MAT8, ORIENTATION=ORI
*SOLID SECTION, ELSET=ROW9, MATERIAL=MAT9, ORIENTATION=ORI
*SOLID SECTION, ELSET=ROW10, MATERIAL=MAT10, ORIENTATION=ORI
*SOLID SECTION, ELSET=ROW11, MATERIAL=MAT11, ORIENTATION=ORI
*SOLID SECTION, ELSET=ROW12, MATERIAL=MAT12, ORIENTATION=ORI
*SOLID SECTION, ELSET=ROW13, MATERIAL=MAT13, ORIENTATION=ORI
*SOLID SECTION, ELSET=ROW14, MATERIAL=MAT14, ORIENTATION=ORI
*SOLID SECTION, ELSET=ROW15, MATERIAL=MAT15, ORIENTATION=ORI
*SOLID SECTION, ELSET=ROW16, MATERIAL=MAT16, ORIENTATION=ORI
*SOLID SECTION, ELSET=ROW17, MATERIAL=MAT17, ORIENTATION=ORI
*MATERIAL, NAME=MAT0
*ELASTIC
 5000.0, 0.450
*EXPANSION, TYPE=ORTHO, ZERO=0.0
 0.000000, 0.000000, 0.000000
*MATERIAL, NAME=MAT1
*ELASTIC
 5000.0, 0.450
*EXPANSION, TYPE=ORTHO, ZERO=0.0
 0.063270, 0.063270, 0.063270
*MATERIAL, NAME=MAT2
*ELASTIC
 5000.0, 0.450
*EXPANSION, TYPE=ORTHO, ZERO=0.0
 0.338826, 0.338826, 0.338826
*MATERIAL, NAME=MAT3
*ELASTIC
 5000.0, 0.450
*EXPANSION, TYPE=ORTHO, ZERO=0.0
 0.230409, 0.230409, 0.230409
*MATERIAL, NAME=MAT4
*ELASTIC
 5000.0, 0.450
*EXPANSION, TYPE=ORTHO, ZERO=0.0
 0.000000, 0.000000, 0.000000
*MATERIAL, NAME=MAT5
*ELASTIC
 5000.0, 0.450
*EXPANSION, TYPE=ORTHO, ZERO=0.0
 0.000000, 0.000000, 0.000000
*MATERIAL, NAME=MAT6
*ELASTIC
 5000.0, 0.450
*EXPANSION, TYPE=ORTHO, ZERO=0.0
 0.000000, 0.000000, 0.000000
*MATERIAL, NAME=MAT7
*ELASTIC
 5000.0, 0.450
*EXPANSION, TYPE=ORTHO, ZERO=0.0
 0.000000, 0.000000, 0.000000
*MATERIAL, NAME=MAT8
*ELASTIC
 5000.0, 0.450
*EXPANSION, TYPE=ORTHO, ZERO=0.0
 0.000000, 0.000000, 0.000000
*MATERIAL, NAME=MAT9
*ELASTIC
 5000.0, 0.450
*EXPANSION, TYPE=ORTHO, ZERO=0.0
 0.002380, 0.002380, 0.002380
*MATERIAL, NAME=MAT10
*ELASTIC
 5000.0, 0.450
*EXPANSION, TYPE=ORTHO, ZERO=0.0
 0.041648, 0.041648, 0.041648
*MATERIAL, NAME=MAT11
*ELASTIC
 5000.0, 0.450
*EXPANSION, TYPE=ORTHO, ZERO=0.0
 0.072966, 0.072966, 0.072966
*MATERIAL, NAME=MAT12
*ELASTIC
 5000.0, 0.450
*EXPANSION, TYPE=ORTHO, ZERO=0.0
 0.094819, 0.094819, 0.094819
*MATERIAL, NAME=MAT13
*ELASTIC
 5000.0, 0.450
*EXPANSION, TYPE=ORTHO, ZERO=0.0
 0.105379, 0.105379, 0.105379
*MATERIAL, NAME=MAT14
*ELASTIC
 5000.0, 0.450
*EXPANSION, TYPE=ORTHO, ZERO=0.0
 0.113738, 0.113738, 0.113738
*MATERIAL, NAME=MAT15
*ELASTIC
 5000.0, 0.450
*EXPANSION, TYPE=ORTHO, ZERO=0.0
 0.120802, 0.120802, 0.120802
*MATERIAL, NAME=MAT16
*ELASTIC
 5000.0, 0.450
*EXPANSION, TYPE=ORTHO, ZERO=0.0
 0.128567, 0.128567, 0.128567
*MATERIAL, NAME=MAT17
*ELASTIC
 5000.0, 0.450
*EXPANSION, TYPE=ORTHO, ZERO=0.0
 0.132719, 0.132719, 0.132719
*NSET, NSET=BOTTOM
 1,2,3,4,5,6,7,8,9,10,11,12,13,14,15,16
 17,18,19,20,21,22,23,24,25,26,27,28,29,30,31,32
 33,34,35,36,37,38,39,40,41,42,43,44,45,46,47,48
 49
*NSET, NSET=ALLN
 1,2,3,4,5,6,7,8,9,10,11,12,13,14,15,16
 17,18,19,20,21,22,23,24,25,26,27,28,29,30,31,32
 33,34,35,36,37,38,39,40,41,42,43,44,45,46,47,48
 49,50,51,52,53,54,55,56,57,58,59,60,61,62,63,64
 65,66,67,68,69,70,71,72,73,74,75,76,77,78,79,80
 81,82,83,84,85,86,87,88,89,90,91,92,93,94,95,96
 97,98,99,100,101,102,103,104,105,106,107,108,109,110,111,112
 113,114,115,116,117,118,119,120,121,122,123,124,125,126,127,128
 129,130,131,132,133,134,135,136,137,138,139,140,141,142,143,144
 145,146,147,148,149,150,151,152,153,154,155,156,157,158,159,160
 161,162,163,164,165,166,167,168,169,170,171,172,173,174,175,176
 177,178,179,180,181,182,183,184,185,186,187,188,189,190,191,192
 193,194,195,196,197,198,199,200,201,202,203,204,205,206,207,208
 209,210,211,212,213,214,215,216,217,218,219,220,221,222,223,224
 225,226,227,228,229,230,231,232,233,234,235,236,237,238,239,240
 241,242,243,244,245,246,247,248,249,250,251,252,253,254,255,256
 257,258,259,260,261,262,263,264,265,266,267,268,269,270,271,272
 273,274,275,276,277,278,279,280,281,282,283,284,285,286,287,288
 289,290,291,292,293,294,295,296,297,298,299,300,301,302,303,304
 305,306,307,308,309,310,311,312,313,314,315,316,317,318,319,320
 321,322,323,324,325,326,327,328,329,330,331,332,333,334,335,336
 337,338,339,340,341,342,343,344,345,346,347,348,349,350,351,352
 353,354,355,356,357,358,359,360,361,362,363,364,365,366,367,368
 369,370,371,372,373,374,375,376,377,378,379,380,381,382,383,384
 385,386,387,388,389,390,391,392,393,394,395,396,397,398,399,400
 401,402,403,404,405,406,407,408,409,410,411,412,413,414,415,416
 417,418,419,420,421,422,423,424,425,426,427,428,429,430,431,432
 433,434,435,436,437,438,439,440,441,442,443,444,445,446,447,448
 449,450,451,452,453,454,455,456,457,458,459,460,461,462,463,464
 465,466,467,468,469,470,471,472,473,474,475,476,477,478,479,480
 481,482,483,484,485,486,487,488,489,490,491,492,493,494,495,496
 497,498,499,500,501,502,503,504,505,506,507,508,509,510,511,512
 513,514,515,516,517,518,519,520,521,522,523,524,525,526,527,528
 529,530,531,532,533,534,535,536,537,538,539,540,541,542,543,544
 545,546,547,548,549,550,551,552,553,554,555,556,557,558,559,560
 561,562,563,564,565,566,567,568,569,570,571,572,573,574,575,576
 577,578,579,580,581,582,583,584,585,586,587,588,589,590,591,592
 593,594,595,596,597,598,599,600,601,602,603,604,605,606,607,608
 609,610,611,612,613,614,615,616,617,618,619,620,621,622,623,624
 625,626,627,628,629,630,631,632,633,634,635,636,637,638,639,640
 641,642,643,644,645,646,647,648,649,650,651,652,653,654,655,656
 657,658,659,660,661,662,663,664,665,666,667,668,669,670,671,672
 673,674,675,676,677,678,679,680,681,682,683,684,685,686,687,688
 689,690,691,692,693,694,695,696,697,698,699,700,701,702,703,704
 705,706,707,708,709,710,711,712,713,714,715,716,717,718,719,720
 721,722,723,724,725,726,727,728,729,730,731,732,733,734,735,736
 737,738,739,740,741,742,743,744,745,746,747,748,749,750,751,752
 753,754,755,756,757,758,759,760,761,762,763,764,765,766,767,768
 769,770,771,772,773,774,775,776,777,778,779,780,781,782,783,784
 785,786,787,788,789,790,791,792,793,794,795,796,797,798,799,800
 801,802,803,804,805,806,807,808,809,810,811,812,813,814,815,816
 817,818,819,820,821,822,823,824,825,826,827,828,829,830,831,832
 833,834,835,836,837,838,839,840,841,842,843,844,845,846,847,848
 849,850,851,852,853,854,855,856,857,858,859,860,861,862,863,864
 865,866,867,868,869,870,871,872,873,874,875,876,877,878,879,880
 881,882,883,884,885,886,887,888,889,890,891,892,893,894,895,896
 897,898,899,900,901,902,903,904,905,906,907,908,909,910,911,912
 913,914,915,916,917,918,919,920,921,922,923,924,925,926,927,928
 929,930,931
** periodic left-right: u(left,j) = u(right,j)
*EQUATION
 2
 50, 1, 1.0, 98, 1, -1.0
*EQUATION
 2
 50, 2, 1.0, 98, 2, -1.0
*EQUATION
 2
 99, 1, 1.0, 147, 1, -1.0
*EQUATION
 2
 99, 2, 1.0, 147, 2, -1.0
*EQUATION
 2
 148, 1, 1.0, 196, 1, -1.0
*EQUATION
 2
 148, 2, 1.0, 196, 2, -1.0
*EQUATION
 2
 197, 1, 1.0, 245, 1, -1.0
*EQUATION
 2
 197, 2, 1.0, 245, 2, -1.0
*EQUATION
 2
 246, 1, 1.0, 294, 1, -1.0
*EQUATION
 2
 246, 2, 1.0, 294, 2, -1.0
*EQUATION
 2
 295, 1, 1.0, 343, 1, -1.0
*EQUATION
 2
 295, 2, 1.0, 343, 2, -1.0
*EQUATION
 2
 344, 1, 1.0, 392, 1, -1.0
*EQUATION
 2
 344, 2, 1.0, 392, 2, -1.0
*EQUATION
 2
 393, 1, 1.0, 441, 1, -1.0
*EQUATION
 2
 393, 2, 1.0, 441, 2, -1.0
*EQUATION
 2
 442, 1, 1.0, 490, 1, -1.0
*EQUATION
 2
 442, 2, 1.0, 490, 2, -1.0
*EQUATION
 2
 491, 1, 1.0, 539, 1, -1.0
*EQUATION
 2
 491, 2, 1.0, 539, 2, -1.0
*EQUATION
 2
 540, 1, 1.0, 588, 1, -1.0
*EQUATION
 2
 540, 2, 1.0, 588, 2, -1.0
*EQUATION
 2
 589, 1, 1.0, 637, 1, -1.0
*EQUATION
 2
 589, 2, 1.0, 637, 2, -1.0
*EQUATION
 2
 638, 1, 1.0, 686, 1, -1.0
*EQUATION
 2
 638, 2, 1.0, 686, 2, -1.0
*EQUATION
 2
 687, 1, 1.0, 735, 1, -1.0
*EQUATION
 2
 687, 2, 1.0, 735, 2, -1.0
*EQUATION
 2
 736, 1, 1.0, 784, 1, -1.0
*EQUATION
 2
 736, 2, 1.0, 784, 2, -1.0
*EQUATION
 2
 785, 1, 1.0, 833, 1, -1.0
*EQUATION
 2
 785, 2, 1.0, 833, 2, -1.0
*EQUATION
 2
 834, 1, 1.0, 882, 1, -1.0
*EQUATION
 2
 834, 2, 1.0, 882, 2, -1.0
*EQUATION
 2
 883, 1, 1.0, 931, 1, -1.0
*EQUATION
 2
 883, 2, 1.0, 931, 2, -1.0
*INITIAL CONDITIONS, TYPE=TEMPERATURE
 ALLN, 0.0
*BOUNDARY
 BOTTOM, 1, 2
*STEP
 Periodic-RVE confined growth -> interface stress (laterally-infinite limit)
*STATIC
*TEMPERATURE
 ALLN, 1.0
*OUTPUT, FIELD
*NODE OUTPUT
 U
*ELEMENT OUTPUT, POSITION=CENTROID
 S, COORD
*END STEP
